c eq.atree.braun.10 circuit equivalence UNSAT benchmark
c Miter circuit encoding non-equivalence of 10-bit adder trees
c Generated for ay SAT solver test suite
p cnf 505 799
-21 0
-22 1 11 0
-22 -1 -11 0
22 -1 11 0
22 1 -11 0
-23 22 21 0
-23 -22 -21 0
23 -22 21 0
23 22 -21 0
-24 1 0
-24 11 0
24 -1 -11 0
-25 21 0
-25 22 0
25 -21 -22 0
26 -24 0
26 -25 0
-26 24 25 0
-27 2 12 0
-27 -2 -12 0
27 -2 12 0
27 2 -12 0
-28 27 26 0
-28 -27 -26 0
28 -27 26 0
28 27 -26 0
-29 2 0
-29 12 0
29 -2 -12 0
-30 26 0
-30 27 0
30 -26 -27 0
31 -29 0
31 -30 0
-31 29 30 0
-32 3 13 0
-32 -3 -13 0
32 -3 13 0
32 3 -13 0
-33 32 31 0
-33 -32 -31 0
33 -32 31 0
33 32 -31 0
-34 3 0
-34 13 0
34 -3 -13 0
-35 31 0
-35 32 0
35 -31 -32 0
36 -34 0
36 -35 0
-36 34 35 0
-37 4 14 0
-37 -4 -14 0
37 -4 14 0
37 4 -14 0
-38 37 36 0
-38 -37 -36 0
38 -37 36 0
38 37 -36 0
-39 4 0
-39 14 0
39 -4 -14 0
-40 36 0
-40 37 0
40 -36 -37 0
41 -39 0
41 -40 0
-41 39 40 0
-42 5 15 0
-42 -5 -15 0
42 -5 15 0
42 5 -15 0
-43 42 41 0
-43 -42 -41 0
43 -42 41 0
43 42 -41 0
-44 5 0
-44 15 0
44 -5 -15 0
-45 41 0
-45 42 0
45 -41 -42 0
46 -44 0
46 -45 0
-46 44 45 0
-47 6 16 0
-47 -6 -16 0
47 -6 16 0
47 6 -16 0
-48 47 46 0
-48 -47 -46 0
48 -47 46 0
48 47 -46 0
-49 6 0
-49 16 0
49 -6 -16 0
-50 46 0
-50 47 0
50 -46 -47 0
51 -49 0
51 -50 0
-51 49 50 0
-52 7 17 0
-52 -7 -17 0
52 -7 17 0
52 7 -17 0
-53 52 51 0
-53 -52 -51 0
53 -52 51 0
53 52 -51 0
-54 7 0
-54 17 0
54 -7 -17 0
-55 51 0
-55 52 0
55 -51 -52 0
56 -54 0
56 -55 0
-56 54 55 0
-57 8 18 0
-57 -8 -18 0
57 -8 18 0
57 8 -18 0
-58 57 56 0
-58 -57 -56 0
58 -57 56 0
58 57 -56 0
-59 8 0
-59 18 0
59 -8 -18 0
-60 56 0
-60 57 0
60 -56 -57 0
61 -59 0
61 -60 0
-61 59 60 0
-62 9 19 0
-62 -9 -19 0
62 -9 19 0
62 9 -19 0
-63 62 61 0
-63 -62 -61 0
63 -62 61 0
63 62 -61 0
-64 9 0
-64 19 0
64 -9 -19 0
-65 61 0
-65 62 0
65 -61 -62 0
66 -64 0
66 -65 0
-66 64 65 0
-67 10 20 0
-67 -10 -20 0
67 -10 20 0
67 10 -20 0
-68 67 66 0
-68 -67 -66 0
68 -67 66 0
68 67 -66 0
-69 10 0
-69 20 0
69 -10 -20 0
-70 66 0
-70 67 0
70 -66 -67 0
71 -69 0
71 -70 0
-71 69 70 0
-72 0
-73 1 11 0
-73 -1 -11 0
73 -1 11 0
73 1 -11 0
-74 73 72 0
-74 -73 -72 0
74 -73 72 0
74 73 -72 0
-75 1 0
-75 11 0
75 -1 -11 0
-76 1 0
-76 72 0
76 -1 -72 0
-77 11 0
-77 72 0
77 -11 -72 0
78 -75 0
78 -76 0
-78 75 76 0
79 -78 0
79 -77 0
-79 78 77 0
-80 2 12 0
-80 -2 -12 0
80 -2 12 0
80 2 -12 0
-81 80 79 0
-81 -80 -79 0
81 -80 79 0
81 80 -79 0
-82 2 0
-82 12 0
82 -2 -12 0
-83 2 0
-83 79 0
83 -2 -79 0
-84 12 0
-84 79 0
84 -12 -79 0
85 -82 0
85 -83 0
-85 82 83 0
86 -85 0
86 -84 0
-86 85 84 0
-87 3 13 0
-87 -3 -13 0
87 -3 13 0
87 3 -13 0
-88 87 86 0
-88 -87 -86 0
88 -87 86 0
88 87 -86 0
-89 3 0
-89 13 0
89 -3 -13 0
-90 3 0
-90 86 0
90 -3 -86 0
-91 13 0
-91 86 0
91 -13 -86 0
92 -89 0
92 -90 0
-92 89 90 0
93 -92 0
93 -91 0
-93 92 91 0
-94 4 14 0
-94 -4 -14 0
94 -4 14 0
94 4 -14 0
-95 94 93 0
-95 -94 -93 0
95 -94 93 0
95 94 -93 0
-96 4 0
-96 14 0
96 -4 -14 0
-97 4 0
-97 93 0
97 -4 -93 0
-98 14 0
-98 93 0
98 -14 -93 0
99 -96 0
99 -97 0
-99 96 97 0
100 -99 0
100 -98 0
-100 99 98 0
-101 5 15 0
-101 -5 -15 0
101 -5 15 0
101 5 -15 0
-102 101 100 0
-102 -101 -100 0
102 -101 100 0
102 101 -100 0
-103 5 0
-103 15 0
103 -5 -15 0
-104 5 0
-104 100 0
104 -5 -100 0
-105 15 0
-105 100 0
105 -15 -100 0
106 -103 0
106 -104 0
-106 103 104 0
107 -106 0
107 -105 0
-107 106 105 0
-108 6 16 0
-108 -6 -16 0
108 -6 16 0
108 6 -16 0
-109 108 107 0
-109 -108 -107 0
109 -108 107 0
109 108 -107 0
-110 6 0
-110 16 0
110 -6 -16 0
-111 6 0
-111 107 0
111 -6 -107 0
-112 16 0
-112 107 0
112 -16 -107 0
113 -110 0
113 -111 0
-113 110 111 0
114 -113 0
114 -112 0
-114 113 112 0
-115 7 17 0
-115 -7 -17 0
115 -7 17 0
115 7 -17 0
-116 115 114 0
-116 -115 -114 0
116 -115 114 0
116 115 -114 0
-117 7 0
-117 17 0
117 -7 -17 0
-118 7 0
-118 114 0
118 -7 -114 0
-119 17 0
-119 114 0
119 -17 -114 0
120 -117 0
120 -118 0
-120 117 118 0
121 -120 0
121 -119 0
-121 120 119 0
-122 8 18 0
-122 -8 -18 0
122 -8 18 0
122 8 -18 0
-123 122 121 0
-123 -122 -121 0
123 -122 121 0
123 122 -121 0
-124 8 0
-124 18 0
124 -8 -18 0
-125 8 0
-125 121 0
125 -8 -121 0
-126 18 0
-126 121 0
126 -18 -121 0
127 -124 0
127 -125 0
-127 124 125 0
128 -127 0
128 -126 0
-128 127 126 0
-129 9 19 0
-129 -9 -19 0
129 -9 19 0
129 9 -19 0
-130 129 128 0
-130 -129 -128 0
130 -129 128 0
130 129 -128 0
-131 9 0
-131 19 0
131 -9 -19 0
-132 9 0
-132 128 0
132 -9 -128 0
-133 19 0
-133 128 0
133 -19 -128 0
134 -131 0
134 -132 0
-134 131 132 0
135 -134 0
135 -133 0
-135 134 133 0
-136 10 20 0
-136 -10 -20 0
136 -10 20 0
136 10 -20 0
-137 136 135 0
-137 -136 -135 0
137 -136 135 0
137 136 -135 0
-138 10 0
-138 20 0
138 -10 -20 0
-139 10 0
-139 135 0
139 -10 -135 0
-140 20 0
-140 135 0
140 -20 -135 0
141 -138 0
141 -139 0
-141 138 139 0
142 -141 0
142 -140 0
-142 141 140 0
-143 23 74 0
-143 -23 -74 0
143 -23 74 0
143 23 -74 0
-144 28 81 0
-144 -28 -81 0
144 -28 81 0
144 28 -81 0
-145 33 88 0
-145 -33 -88 0
145 -33 88 0
145 33 -88 0
-146 38 95 0
-146 -38 -95 0
146 -38 95 0
146 38 -95 0
-147 43 102 0
-147 -43 -102 0
147 -43 102 0
147 43 -102 0
-148 48 109 0
-148 -48 -109 0
148 -48 109 0
148 48 -109 0
-149 53 116 0
-149 -53 -116 0
149 -53 116 0
149 53 -116 0
-150 58 123 0
-150 -58 -123 0
150 -58 123 0
150 58 -123 0
-151 63 130 0
-151 -63 -130 0
151 -63 130 0
151 63 -130 0
-152 68 137 0
-152 -68 -137 0
152 -68 137 0
152 68 -137 0
-153 71 142 0
-153 -71 -142 0
153 -71 142 0
153 71 -142 0
143 144 145 146 147 148 149 150 151 152 153 0
-154 155 0
154 -155 0
-156 157 0
156 -157 0
-158 159 0
158 -159 0
-160 161 0
160 -161 0
-162 163 0
162 -163 0
-164 165 0
164 -165 0
-166 167 0
166 -167 0
-168 169 0
168 -169 0
-170 171 0
170 -171 0
-172 173 0
172 -173 0
-174 175 0
174 -175 0
-176 177 0
176 -177 0
-178 179 0
178 -179 0
-180 181 0
180 -181 0
-182 183 0
182 -183 0
-184 185 0
184 -185 0
-186 187 0
186 -187 0
-188 189 0
188 -189 0
-190 191 0
190 -191 0
-192 193 0
192 -193 0
-194 195 0
194 -195 0
-196 197 0
196 -197 0
-198 199 0
198 -199 0
-200 201 0
200 -201 0
-202 203 0
202 -203 0
-204 205 0
204 -205 0
-206 207 0
206 -207 0
-208 209 0
208 -209 0
-210 211 0
210 -211 0
-212 213 0
212 -213 0
-214 215 0
214 -215 0
-216 217 0
216 -217 0
-218 219 0
218 -219 0
-220 221 0
220 -221 0
-222 223 0
222 -223 0
-224 225 0
224 -225 0
-226 227 0
226 -227 0
-228 229 0
228 -229 0
-230 231 0
230 -231 0
-232 233 0
232 -233 0
-234 235 0
234 -235 0
-236 237 0
236 -237 0
-238 239 0
238 -239 0
-240 241 0
240 -241 0
-242 243 0
242 -243 0
-244 245 0
244 -245 0
-246 247 0
246 -247 0
-248 249 0
248 -249 0
-250 251 0
250 -251 0
-252 253 0
252 -253 0
-254 255 0
254 -255 0
-256 257 0
256 -257 0
-258 259 0
258 -259 0
-260 261 0
260 -261 0
-262 263 0
262 -263 0
-264 265 0
264 -265 0
-266 267 0
266 -267 0
-268 269 0
268 -269 0
-270 271 0
270 -271 0
-272 273 0
272 -273 0
-274 275 0
274 -275 0
-276 277 0
276 -277 0
-278 279 0
278 -279 0
-280 281 0
280 -281 0
-282 283 0
282 -283 0
-284 285 0
284 -285 0
-286 287 0
286 -287 0
-288 289 0
288 -289 0
-290 291 0
290 -291 0
-292 293 0
292 -293 0
-294 295 0
294 -295 0
-296 297 0
296 -297 0
-298 299 0
298 -299 0
-300 301 0
300 -301 0
-302 303 0
302 -303 0
-304 305 0
304 -305 0
-306 307 0
306 -307 0
-308 309 0
308 -309 0
-310 311 0
310 -311 0
-312 313 0
312 -313 0
-314 315 0
314 -315 0
-316 317 0
316 -317 0
-318 319 0
318 -319 0
-320 321 0
320 -321 0
-322 323 0
322 -323 0
-324 325 0
324 -325 0
-326 327 0
326 -327 0
-328 329 0
328 -329 0
-330 331 0
330 -331 0
-332 333 0
332 -333 0
-334 335 0
334 -335 0
-336 337 0
336 -337 0
-338 339 0
338 -339 0
-340 341 0
340 -341 0
-342 343 0
342 -343 0
-344 345 0
344 -345 0
-346 347 0
346 -347 0
-348 349 0
348 -349 0
-350 351 0
350 -351 0
-352 353 0
352 -353 0
-354 355 0
354 -355 0
-356 357 0
356 -357 0
-358 359 0
358 -359 0
-360 361 0
360 -361 0
-362 363 0
362 -363 0
-364 365 0
364 -365 0
-366 367 0
366 -367 0
-368 369 0
368 -369 0
-370 371 0
370 -371 0
-372 373 0
372 -373 0
-374 375 0
374 -375 0
-376 377 0
376 -377 0
-378 379 0
378 -379 0
-380 381 0
380 -381 0
-382 383 0
382 -383 0
-384 385 0
384 -385 0
-386 387 0
386 -387 0
-388 389 0
388 -389 0
-390 391 0
390 -391 0
-392 393 0
392 -393 0
-394 395 0
394 -395 0
-396 397 0
396 -397 0
-398 399 0
398 -399 0
-400 401 0
400 -401 0
-402 403 0
402 -403 0
-404 405 0
404 -405 0
-406 407 0
406 -407 0
-408 409 0
408 -409 0
-410 411 0
410 -411 0
-412 413 0
412 -413 0
-414 415 0
414 -415 0
-416 417 0
416 -417 0
-418 419 0
418 -419 0
-420 421 0
420 -421 0
-422 423 0
422 -423 0
-424 425 0
424 -425 0
-426 427 0
426 -427 0
-428 429 0
428 -429 0
-430 431 0
430 -431 0
-432 433 0
432 -433 0
-434 435 0
434 -435 0
-436 437 0
436 -437 0
-438 439 0
438 -439 0
-440 441 0
440 -441 0
-442 443 0
442 -443 0
-444 445 0
444 -445 0
-446 447 0
446 -447 0
-448 449 0
448 -449 0
-450 451 0
450 -451 0
-452 453 0
452 -453 0
-454 455 0
454 -455 0
-456 457 0
456 -457 0
-458 459 0
458 -459 0
-460 461 0
460 -461 0
-462 463 0
462 -463 0
-464 465 0
464 -465 0
-466 467 0
466 -467 0
-468 469 0
468 -469 0
-470 471 0
470 -471 0
-472 473 0
472 -473 0
-474 475 0
474 -475 0
-476 477 0
476 -477 0
-478 479 0
478 -479 0
-480 481 0
480 -481 0
-482 483 0
482 -483 0
-484 485 0
484 -485 0
-486 487 0
486 -487 0
-488 489 0
488 -489 0
-490 491 0
490 -491 0
-492 493 0
492 -493 0
-494 495 0
494 -495 0
-496 497 0
496 -497 0
-498 499 0
498 -499 0
-500 501 0
500 -501 0
-502 503 0
502 -503 0
-504 505 0
504 -505 0
