p cnf 2010 6802
-1 2 0
-1 3 0
-1 4 0
-1 5 0
-1 6 0
-1 7 0
-1 8 0
-1 9 0
-1 10 0
-1 11 0
-1 12 0
-1 13 0
-1 14 0
-1 15 0
-1 16 0
-1 17 0
-1 18 0
-1 19 0
-1 20 0
-1 21 0
-1 22 0
-1 23 0
-1 24 0
-1 25 0
1 -25 -24 -23 -22 -21 -20 -19 -18 -17 -16 -15 -14 -13 -12 -11 -10 -9 -8 -7 -6 -5 -4 -3 -2 0
-1 0
2 797 28 0
2 -797 -28 0
-2 797 -28 0
-2 -797 28 0
3 798 30 0
3 -798 -30 0
-3 798 -30 0
-3 -798 30 0
4 799 35 0
4 -799 -35 0
-4 799 -35 0
-4 -799 35 0
5 800 40 0
5 -800 -40 0
-5 800 -40 0
-5 -800 40 0
6 803 45 0
6 -803 -45 0
-6 803 -45 0
-6 -803 45 0
7 806 50 0
7 -806 -50 0
-7 806 -50 0
-7 -806 50 0
8 809 55 0
8 -809 -55 0
-8 809 -55 0
-8 -809 55 0
9 812 60 0
9 -812 -60 0
-9 812 -60 0
-9 -812 60 0
10 815 65 0
10 -815 -65 0
-10 815 -65 0
-10 -815 65 0
11 818 70 0
11 -818 -70 0
-11 818 -70 0
-11 -818 70 0
12 821 75 0
12 -821 -75 0
-12 821 -75 0
-12 -821 75 0
13 824 80 0
13 -824 -80 0
-13 824 -80 0
-13 -824 80 0
14 827 84 0
14 -827 -84 0
-14 827 -84 0
-14 -827 84 0
15 142 830 0
15 -142 -830 0
-15 142 -830 0
-15 -142 830 0
16 833 200 0
16 -833 -200 0
-16 833 -200 0
-16 -833 200 0
17 836 260 0
17 -836 -260 0
-17 836 -260 0
-17 -836 260 0
18 839 318 0
18 -839 -318 0
-18 839 -318 0
-18 -839 318 0
19 843 378 0
19 -843 -378 0
-19 843 -378 0
-19 -843 378 0
20 1025 436 0
20 -1025 -436 0
-20 1025 -436 0
-20 -1025 436 0
21 1028 496 0
21 -1028 -496 0
-21 1028 -496 0
-21 -1028 496 0
22 1031 554 0
22 -1031 -554 0
-22 1031 -554 0
-22 -1031 554 0
23 1035 614 0
23 -1035 -614 0
-23 1035 -614 0
-23 -1035 614 0
24 1327 672 0
24 -1327 -672 0
-24 1327 -672 0
-24 -1327 672 0
25 1331 732 0
25 -1331 -732 0
-25 1331 -732 0
-25 -1331 732 0
-26 -1986 0
-26 -1988 0
-26 -1990 0
-26 -1992 0
-26 -1994 0
-26 -1996 0
-26 -1998 0
-26 -2000 0
-26 -2002 0
-26 -2004 0
-26 -2006 0
-26 -2008 0
-26 2009 0
26 -2009 2008 2006 2004 2002 2000 1998 1996 1994 1992 1990 1988 1986 0
-26 0
-27 -1830 0
-27 -1844 0
-27 -1858 0
-27 -1872 0
-27 -1886 0
-27 -1900 0
-27 -1914 0
-27 -1928 0
-27 -1942 0
-27 -1956 0
-27 -1970 0
-27 -1984 0
-27 2010 0
27 -2010 1984 1970 1956 1942 1928 1914 1900 1886 1872 1858 1844 1830 0
-27 0
28 -29 0
28 -31 0
-28 31 29 0
-29 32 0
-29 33 0
29 -33 -32 0
30 33 -32 0
30 -33 32 0
-30 33 32 0
-30 -33 -32 0
-31 85 0
-31 1817 0
31 -1817 -85 0
32 1817 -85 0
32 -1817 85 0
-32 1817 85 0
-32 -1817 -85 0
33 -34 0
33 -36 0
-33 36 34 0
-34 37 0
-34 38 0
34 -38 -37 0
35 38 -37 0
35 -38 37 0
-35 38 37 0
-35 -38 -37 0
-36 87 0
-36 90 0
36 -90 -87 0
37 90 -87 0
37 -90 87 0
-37 90 87 0
-37 -90 -87 0
38 -39 0
38 -41 0
-38 41 39 0
-39 42 0
-39 43 0
39 -43 -42 0
40 43 -42 0
40 -43 42 0
-40 43 42 0
-40 -43 -42 0
-41 92 0
-41 95 0
41 -95 -92 0
42 95 -92 0
42 -95 92 0
-42 95 92 0
-42 -95 -92 0
43 -44 0
43 -46 0
-43 46 44 0
-44 47 0
-44 48 0
44 -48 -47 0
45 48 -47 0
45 -48 47 0
-45 48 47 0
-45 -48 -47 0
-46 97 0
-46 100 0
46 -100 -97 0
47 100 -97 0
47 -100 97 0
-47 100 97 0
-47 -100 -97 0
48 -49 0
48 -51 0
-48 51 49 0
-49 52 0
-49 53 0
49 -53 -52 0
50 53 -52 0
50 -53 52 0
-50 53 52 0
-50 -53 -52 0
-51 102 0
-51 105 0
51 -105 -102 0
52 105 -102 0
52 -105 102 0
-52 105 102 0
-52 -105 -102 0
53 -54 0
53 -56 0
-53 56 54 0
-54 57 0
-54 58 0
54 -58 -57 0
55 58 -57 0
55 -58 57 0
-55 58 57 0
-55 -58 -57 0
-56 107 0
-56 110 0
56 -110 -107 0
57 110 -107 0
57 -110 107 0
-57 110 107 0
-57 -110 -107 0
58 -59 0
58 -61 0
-58 61 59 0
-59 62 0
-59 63 0
59 -63 -62 0
60 63 -62 0
60 -63 62 0
-60 63 62 0
-60 -63 -62 0
-61 112 0
-61 115 0
61 -115 -112 0
62 115 -112 0
62 -115 112 0
-62 115 112 0
-62 -115 -112 0
63 -64 0
63 -66 0
-63 66 64 0
-64 67 0
-64 68 0
64 -68 -67 0
65 68 -67 0
65 -68 67 0
-65 68 67 0
-65 -68 -67 0
-66 117 0
-66 120 0
66 -120 -117 0
67 120 -117 0
67 -120 117 0
-67 120 117 0
-67 -120 -117 0
68 -69 0
68 -71 0
-68 71 69 0
-69 72 0
-69 73 0
69 -73 -72 0
70 73 -72 0
70 -73 72 0
-70 73 72 0
-70 -73 -72 0
-71 122 0
-71 125 0
71 -125 -122 0
72 125 -122 0
72 -125 122 0
-72 125 122 0
-72 -125 -122 0
73 -74 0
73 -76 0
-73 76 74 0
-74 77 0
-74 78 0
74 -78 -77 0
75 78 -77 0
75 -78 77 0
-75 78 77 0
-75 -78 -77 0
-76 127 0
-76 130 0
76 -130 -127 0
77 130 -127 0
77 -130 127 0
-77 130 127 0
-77 -130 -127 0
78 -79 0
78 -81 0
-78 81 79 0
-79 82 0
-79 83 0
79 -83 -82 0
80 83 -82 0
80 -83 82 0
-80 83 82 0
-80 -83 -82 0
-81 132 0
-81 135 0
81 -135 -132 0
82 135 -132 0
82 -135 132 0
-82 135 132 0
-82 -135 -132 0
-83 137 0
-83 140 0
83 -140 -137 0
84 140 -137 0
84 -140 137 0
-84 140 137 0
-84 -140 -137 0
85 -86 0
85 -88 0
-85 88 86 0
-86 89 0
-86 145 0
86 -145 -89 0
87 145 -89 0
87 -145 89 0
-87 145 89 0
-87 -145 -89 0
-88 1831 0
-88 1818 0
88 -1818 -1831 0
89 1818 -1831 0
89 -1818 1831 0
-89 1818 1831 0
-89 -1818 -1831 0
90 -91 0
90 -93 0
-90 93 91 0
-91 94 0
-91 148 0
91 -148 -94 0
92 148 -94 0
92 -148 94 0
-92 148 94 0
-92 -148 -94 0
-93 147 0
-93 1845 0
93 -1845 -147 0
94 1845 -147 0
94 -1845 147 0
-94 1845 147 0
-94 -1845 -147 0
95 -96 0
95 -98 0
-95 98 96 0
-96 99 0
-96 153 0
96 -153 -99 0
97 153 -99 0
97 -153 99 0
-97 153 99 0
-97 -153 -99 0
-98 150 0
-98 1859 0
98 -1859 -150 0
99 1859 -150 0
99 -1859 150 0
-99 1859 150 0
-99 -1859 -150 0
100 -101 0
100 -103 0
-100 103 101 0
-101 104 0
-101 158 0
101 -158 -104 0
102 158 -104 0
102 -158 104 0
-102 158 104 0
-102 -158 -104 0
-103 155 0
-103 1873 0
103 -1873 -155 0
104 1873 -155 0
104 -1873 155 0
-104 1873 155 0
-104 -1873 -155 0
105 -106 0
105 -108 0
-105 108 106 0
-106 109 0
-106 163 0
106 -163 -109 0
107 163 -109 0
107 -163 109 0
-107 163 109 0
-107 -163 -109 0
-108 160 0
-108 1887 0
108 -1887 -160 0
109 1887 -160 0
109 -1887 160 0
-109 1887 160 0
-109 -1887 -160 0
110 -111 0
110 -113 0
-110 113 111 0
-111 114 0
-111 168 0
111 -168 -114 0
112 168 -114 0
112 -168 114 0
-112 168 114 0
-112 -168 -114 0
-113 165 0
-113 1901 0
113 -1901 -165 0
114 1901 -165 0
114 -1901 165 0
-114 1901 165 0
-114 -1901 -165 0
115 -116 0
115 -118 0
-115 118 116 0
-116 173 0
-116 119 0
116 -119 -173 0
117 119 -173 0
117 -119 173 0
-117 119 173 0
-117 -119 -173 0
-118 170 0
-118 1915 0
118 -1915 -170 0
119 1915 -170 0
119 -1915 170 0
-119 1915 170 0
-119 -1915 -170 0
120 -121 0
120 -123 0
-120 123 121 0
-121 178 0
-121 124 0
121 -124 -178 0
122 124 -178 0
122 -124 178 0
-122 124 178 0
-122 -124 -178 0
-123 175 0
-123 1929 0
123 -1929 -175 0
124 1929 -175 0
124 -1929 175 0
-124 1929 175 0
-124 -1929 -175 0
125 -126 0
125 -128 0
-125 128 126 0
-126 183 0
-126 129 0
126 -129 -183 0
127 129 -183 0
127 -129 183 0
-127 129 183 0
-127 -129 -183 0
-128 180 0
-128 1943 0
128 -1943 -180 0
129 1943 -180 0
129 -1943 180 0
-129 1943 180 0
-129 -1943 -180 0
130 -131 0
130 -133 0
-130 133 131 0
-131 188 0
-131 134 0
131 -134 -188 0
132 134 -188 0
132 -134 188 0
-132 134 188 0
-132 -134 -188 0
-133 185 0
-133 1957 0
133 -1957 -185 0
134 1957 -185 0
134 -1957 185 0
-134 1957 185 0
-134 -1957 -185 0
135 -136 0
135 -138 0
-135 138 136 0
-136 193 0
-136 139 0
136 -139 -193 0
137 139 -193 0
137 -139 193 0
-137 139 193 0
-137 -139 -193 0
-138 190 0
-138 1971 0
138 -1971 -190 0
139 1971 -190 0
139 -1971 190 0
-139 1971 190 0
-139 -1971 -190 0
140 -141 0
140 -143 0
-140 143 141 0
-141 198 0
-141 144 0
141 -144 -198 0
142 144 -198 0
142 -144 198 0
-142 144 198 0
-142 -144 -198 0
-143 195 0
-143 1985 0
143 -1985 -195 0
144 1985 -195 0
144 -1985 195 0
-144 1985 195 0
-144 -1985 -195 0
145 -146 0
145 -1379 0
-145 1379 146 0
-146 203 0
-146 1380 0
146 -1380 -203 0
147 1380 -203 0
147 -1380 203 0
-147 1380 203 0
-147 -1380 -203 0
148 -149 0
148 -151 0
-148 151 149 0
-149 208 0
-149 152 0
149 -152 -208 0
150 152 -208 0
150 -152 208 0
-150 152 208 0
-150 -152 -208 0
-151 205 0
-151 1846 0
151 -1846 -205 0
152 1846 -205 0
152 -1846 205 0
-152 1846 205 0
-152 -1846 -205 0
153 -154 0
153 -156 0
-153 156 154 0
-154 213 0
-154 157 0
154 -157 -213 0
155 157 -213 0
155 -157 213 0
-155 157 213 0
-155 -157 -213 0
-156 210 0
-156 1860 0
156 -1860 -210 0
157 1860 -210 0
157 -1860 210 0
-157 1860 210 0
-157 -1860 -210 0
158 -159 0
158 -161 0
-158 161 159 0
-159 218 0
-159 162 0
159 -162 -218 0
160 162 -218 0
160 -162 218 0
-160 162 218 0
-160 -162 -218 0
-161 215 0
-161 1874 0
161 -1874 -215 0
162 1874 -215 0
162 -1874 215 0
-162 1874 215 0
-162 -1874 -215 0
163 -164 0
163 -166 0
-163 166 164 0
-164 223 0
-164 167 0
164 -167 -223 0
165 167 -223 0
165 -167 223 0
-165 167 223 0
-165 -167 -223 0
-166 220 0
-166 1888 0
166 -1888 -220 0
167 1888 -220 0
167 -1888 220 0
-167 1888 220 0
-167 -1888 -220 0
168 -171 0
168 -169 0
-168 169 171 0
-169 172 0
-169 228 0
169 -228 -172 0
170 228 -172 0
170 -228 172 0
-170 228 172 0
-170 -228 -172 0
-171 225 0
-171 1902 0
171 -1902 -225 0
172 1902 -225 0
172 -1902 225 0
-172 1902 225 0
-172 -1902 -225 0
173 -174 0
173 -176 0
-173 176 174 0
-174 177 0
-174 233 0
174 -233 -177 0
175 233 -177 0
175 -233 177 0
-175 233 177 0
-175 -233 -177 0
-176 230 0
-176 1916 0
176 -1916 -230 0
177 1916 -230 0
177 -1916 230 0
-177 1916 230 0
-177 -1916 -230 0
178 -179 0
178 -181 0
-178 181 179 0
-179 182 0
-179 238 0
179 -238 -182 0
180 238 -182 0
180 -238 182 0
-180 238 182 0
-180 -238 -182 0
-181 235 0
-181 1930 0
181 -1930 -235 0
182 1930 -235 0
182 -1930 235 0
-182 1930 235 0
-182 -1930 -235 0
183 -184 0
183 -186 0
-183 186 184 0
-184 187 0
-184 243 0
184 -243 -187 0
185 243 -187 0
185 -243 187 0
-185 243 187 0
-185 -243 -187 0
-186 240 0
-186 1944 0
186 -1944 -240 0
187 1944 -240 0
187 -1944 240 0
-187 1944 240 0
-187 -1944 -240 0
188 -189 0
188 -191 0
-188 191 189 0
-189 192 0
-189 248 0
189 -248 -192 0
190 248 -192 0
190 -248 192 0
-190 248 192 0
-190 -248 -192 0
-191 245 0
-191 1958 0
191 -1958 -245 0
192 1958 -245 0
192 -1958 245 0
-192 1958 245 0
-192 -1958 -245 0
193 -194 0
193 -196 0
-193 196 194 0
-194 197 0
-194 253 0
194 -253 -197 0
195 253 -197 0
195 -253 197 0
-195 253 197 0
-195 -253 -197 0
-196 250 0
-196 1972 0
196 -1972 -250 0
197 1972 -250 0
197 -1972 250 0
-197 1972 250 0
-197 -1972 -250 0
198 -199 0
198 -201 0
-198 201 199 0
-199 202 0
-199 258 0
199 -258 -202 0
200 258 -202 0
200 -258 202 0
-200 258 202 0
-200 -258 -202 0
-201 255 0
-201 1987 0
201 -1987 -255 0
202 1987 -255 0
202 -1987 255 0
-202 1987 255 0
-202 -1987 -255 0
203 -204 0
203 -206 0
-203 206 204 0
-204 207 0
-204 263 0
204 -263 -207 0
205 263 -207 0
205 -263 207 0
-205 263 207 0
-205 -263 -207 0
-206 1820 0
-206 1833 0
206 -1833 -1820 0
207 1833 -1820 0
207 -1833 1820 0
-207 1833 1820 0
-207 -1833 -1820 0
208 -209 0
208 -211 0
-208 211 209 0
-209 212 0
-209 266 0
209 -266 -212 0
210 266 -212 0
210 -266 212 0
-210 266 212 0
-210 -266 -212 0
-211 265 0
-211 1847 0
211 -1847 -265 0
212 1847 -265 0
212 -1847 265 0
-212 1847 265 0
-212 -1847 -265 0
213 -214 0
213 -216 0
-213 216 214 0
-214 217 0
-214 271 0
214 -271 -217 0
215 271 -217 0
215 -271 217 0
-215 271 217 0
-215 -271 -217 0
-216 268 0
-216 1861 0
216 -1861 -268 0
217 1861 -268 0
217 -1861 268 0
-217 1861 268 0
-217 -1861 -268 0
218 -219 0
218 -221 0
-218 221 219 0
-219 222 0
-219 276 0
219 -276 -222 0
220 276 -222 0
220 -276 222 0
-220 276 222 0
-220 -276 -222 0
-221 273 0
-221 1875 0
221 -1875 -273 0
222 1875 -273 0
222 -1875 273 0
-222 1875 273 0
-222 -1875 -273 0
223 -224 0
223 -226 0
-223 226 224 0
-224 227 0
-224 281 0
224 -281 -227 0
225 281 -227 0
225 -281 227 0
-225 281 227 0
-225 -281 -227 0
-226 278 0
-226 1889 0
226 -1889 -278 0
227 1889 -278 0
227 -1889 278 0
-227 1889 278 0
-227 -1889 -278 0
228 -229 0
228 -231 0
-228 231 229 0
-229 232 0
-229 286 0
229 -286 -232 0
230 286 -232 0
230 -286 232 0
-230 286 232 0
-230 -286 -232 0
-231 283 0
-231 1903 0
231 -1903 -283 0
232 1903 -283 0
232 -1903 283 0
-232 1903 283 0
-232 -1903 -283 0
233 -234 0
233 -236 0
-233 236 234 0
-234 237 0
-234 291 0
234 -291 -237 0
235 291 -237 0
235 -291 237 0
-235 291 237 0
-235 -291 -237 0
-236 288 0
-236 1917 0
236 -1917 -288 0
237 1917 -288 0
237 -1917 288 0
-237 1917 288 0
-237 -1917 -288 0
238 -239 0
238 -241 0
-238 241 239 0
-239 242 0
-239 296 0
239 -296 -242 0
240 296 -242 0
240 -296 242 0
-240 296 242 0
-240 -296 -242 0
-241 293 0
-241 1931 0
241 -1931 -293 0
242 1931 -293 0
242 -1931 293 0
-242 1931 293 0
-242 -1931 -293 0
243 -244 0
243 -246 0
-243 246 244 0
-244 247 0
-244 301 0
244 -301 -247 0
245 301 -247 0
245 -301 247 0
-245 301 247 0
-245 -301 -247 0
-246 298 0
-246 1945 0
246 -1945 -298 0
247 1945 -298 0
247 -1945 298 0
-247 1945 298 0
-247 -1945 -298 0
248 -249 0
248 -251 0
-248 251 249 0
-249 252 0
-249 306 0
249 -306 -252 0
250 306 -252 0
250 -306 252 0
-250 306 252 0
-250 -306 -252 0
-251 303 0
-251 1959 0
251 -1959 -303 0
252 1959 -303 0
252 -1959 303 0
-252 1959 303 0
-252 -1959 -303 0
253 -254 0
253 -256 0
-253 256 254 0
-254 257 0
-254 311 0
254 -311 -257 0
255 311 -257 0
255 -311 257 0
-255 311 257 0
-255 -311 -257 0
-256 308 0
-256 1973 0
256 -1973 -308 0
257 1973 -308 0
257 -1973 308 0
-257 1973 308 0
-257 -1973 -308 0
258 -259 0
258 -261 0
-258 261 259 0
-259 262 0
-259 316 0
259 -316 -262 0
260 316 -262 0
260 -316 262 0
-260 316 262 0
-260 -316 -262 0
-261 313 0
-261 1989 0
261 -1989 -313 0
262 1989 -313 0
262 -1989 313 0
-262 1989 313 0
-262 -1989 -313 0
263 -264 0
263 -1460 0
-263 1460 264 0
-264 321 0
-264 1461 0
264 -1461 -321 0
265 1461 -321 0
265 -1461 321 0
-265 1461 321 0
-265 -1461 -321 0
266 -267 0
266 -269 0
-266 269 267 0
-267 270 0
-267 326 0
267 -326 -270 0
268 326 -270 0
268 -326 270 0
-268 326 270 0
-268 -326 -270 0
-269 323 0
-269 1848 0
269 -1848 -323 0
270 1848 -323 0
270 -1848 323 0
-270 1848 323 0
-270 -1848 -323 0
271 -272 0
271 -274 0
-271 274 272 0
-272 275 0
-272 331 0
272 -331 -275 0
273 331 -275 0
273 -331 275 0
-273 331 275 0
-273 -331 -275 0
-274 328 0
-274 1862 0
274 -1862 -328 0
275 1862 -328 0
275 -1862 328 0
-275 1862 328 0
-275 -1862 -328 0
276 -277 0
276 -279 0
-276 279 277 0
-277 280 0
-277 336 0
277 -336 -280 0
278 336 -280 0
278 -336 280 0
-278 336 280 0
-278 -336 -280 0
-279 333 0
-279 1876 0
279 -1876 -333 0
280 1876 -333 0
280 -1876 333 0
-280 1876 333 0
-280 -1876 -333 0
281 -282 0
281 -284 0
-281 284 282 0
-282 285 0
-282 341 0
282 -341 -285 0
283 341 -285 0
283 -341 285 0
-283 341 285 0
-283 -341 -285 0
-284 338 0
-284 1890 0
284 -1890 -338 0
285 1890 -338 0
285 -1890 338 0
-285 1890 338 0
-285 -1890 -338 0
286 -287 0
286 -289 0
-286 289 287 0
-287 290 0
-287 346 0
287 -346 -290 0
288 346 -290 0
288 -346 290 0
-288 346 290 0
-288 -346 -290 0
-289 343 0
-289 1904 0
289 -1904 -343 0
290 1904 -343 0
290 -1904 343 0
-290 1904 343 0
-290 -1904 -343 0
291 -292 0
291 -294 0
-291 294 292 0
-292 295 0
-292 351 0
292 -351 -295 0
293 351 -295 0
293 -351 295 0
-293 351 295 0
-293 -351 -295 0
-294 348 0
-294 1918 0
294 -1918 -348 0
295 1918 -348 0
295 -1918 348 0
-295 1918 348 0
-295 -1918 -348 0
296 -297 0
296 -299 0
-296 299 297 0
-297 300 0
-297 356 0
297 -356 -300 0
298 356 -300 0
298 -356 300 0
-298 356 300 0
-298 -356 -300 0
-299 353 0
-299 1932 0
299 -1932 -353 0
300 1932 -353 0
300 -1932 353 0
-300 1932 353 0
-300 -1932 -353 0
301 -302 0
301 -304 0
-301 304 302 0
-302 305 0
-302 361 0
302 -361 -305 0
303 361 -305 0
303 -361 305 0
-303 361 305 0
-303 -361 -305 0
-304 358 0
-304 1946 0
304 -1946 -358 0
305 1946 -358 0
305 -1946 358 0
-305 1946 358 0
-305 -1946 -358 0
306 -307 0
306 -309 0
-306 309 307 0
-307 310 0
-307 366 0
307 -366 -310 0
308 366 -310 0
308 -366 310 0
-308 366 310 0
-308 -366 -310 0
-309 363 0
-309 1960 0
309 -1960 -363 0
310 1960 -363 0
310 -1960 363 0
-310 1960 363 0
-310 -1960 -363 0
311 -312 0
311 -314 0
-311 314 312 0
-312 315 0
-312 371 0
312 -371 -315 0
313 371 -315 0
313 -371 315 0
-313 371 315 0
-313 -371 -315 0
-314 368 0
-314 1974 0
314 -1974 -368 0
315 1974 -368 0
315 -1974 368 0
-315 1974 368 0
-315 -1974 -368 0
316 -317 0
316 -319 0
-316 319 317 0
-317 320 0
-317 376 0
317 -376 -320 0
318 376 -320 0
318 -376 320 0
-318 376 320 0
-318 -376 -320 0
-319 373 0
-319 1991 0
319 -1991 -373 0
320 1991 -373 0
320 -1991 373 0
-320 1991 373 0
-320 -1991 -373 0
321 -322 0
321 -324 0
-321 324 322 0
-322 325 0
-322 381 0
322 -381 -325 0
323 381 -325 0
323 -381 325 0
-323 381 325 0
-323 -381 -325 0
-324 1822 0
-324 1835 0
324 -1835 -1822 0
325 1835 -1822 0
325 -1835 1822 0
-325 1835 1822 0
-325 -1835 -1822 0
326 -327 0
326 -329 0
-326 329 327 0
-327 330 0
-327 384 0
327 -384 -330 0
328 384 -330 0
328 -384 330 0
-328 384 330 0
-328 -384 -330 0
-329 383 0
-329 1849 0
329 -1849 -383 0
330 1849 -383 0
330 -1849 383 0
-330 1849 383 0
-330 -1849 -383 0
331 -332 0
331 -334 0
-331 334 332 0
-332 335 0
-332 389 0
332 -389 -335 0
333 389 -335 0
333 -389 335 0
-333 389 335 0
-333 -389 -335 0
-334 386 0
-334 1863 0
334 -1863 -386 0
335 1863 -386 0
335 -1863 386 0
-335 1863 386 0
-335 -1863 -386 0
336 -337 0
336 -339 0
-336 339 337 0
-337 340 0
-337 394 0
337 -394 -340 0
338 394 -340 0
338 -394 340 0
-338 394 340 0
-338 -394 -340 0
-339 391 0
-339 1877 0
339 -1877 -391 0
340 1877 -391 0
340 -1877 391 0
-340 1877 391 0
-340 -1877 -391 0
341 -342 0
341 -344 0
-341 344 342 0
-342 345 0
-342 399 0
342 -399 -345 0
343 399 -345 0
343 -399 345 0
-343 399 345 0
-343 -399 -345 0
-344 396 0
-344 1891 0
344 -1891 -396 0
345 1891 -396 0
345 -1891 396 0
-345 1891 396 0
-345 -1891 -396 0
346 -347 0
346 -349 0
-346 349 347 0
-347 350 0
-347 404 0
347 -404 -350 0
348 404 -350 0
348 -404 350 0
-348 404 350 0
-348 -404 -350 0
-349 401 0
-349 1905 0
349 -1905 -401 0
350 1905 -401 0
350 -1905 401 0
-350 1905 401 0
-350 -1905 -401 0
351 -352 0
351 -354 0
-351 354 352 0
-352 355 0
-352 409 0
352 -409 -355 0
353 409 -355 0
353 -409 355 0
-353 409 355 0
-353 -409 -355 0
-354 406 0
-354 1919 0
354 -1919 -406 0
355 1919 -406 0
355 -1919 406 0
-355 1919 406 0
-355 -1919 -406 0
356 -357 0
356 -359 0
-356 359 357 0
-357 360 0
-357 414 0
357 -414 -360 0
358 414 -360 0
358 -414 360 0
-358 414 360 0
-358 -414 -360 0
-359 411 0
-359 1933 0
359 -1933 -411 0
360 1933 -411 0
360 -1933 411 0
-360 1933 411 0
-360 -1933 -411 0
361 -362 0
361 -364 0
-361 364 362 0
-362 365 0
-362 419 0
362 -419 -365 0
363 419 -365 0
363 -419 365 0
-363 419 365 0
-363 -419 -365 0
-364 416 0
-364 1947 0
364 -1947 -416 0
365 1947 -416 0
365 -1947 416 0
-365 1947 416 0
-365 -1947 -416 0
366 -367 0
366 -369 0
-366 369 367 0
-367 370 0
-367 424 0
367 -424 -370 0
368 424 -370 0
368 -424 370 0
-368 424 370 0
-368 -424 -370 0
-369 421 0
-369 1961 0
369 -1961 -421 0
370 1961 -421 0
370 -1961 421 0
-370 1961 421 0
-370 -1961 -421 0
371 -372 0
371 -374 0
-371 374 372 0
-372 375 0
-372 429 0
372 -429 -375 0
373 429 -375 0
373 -429 375 0
-373 429 375 0
-373 -429 -375 0
-374 426 0
-374 1975 0
374 -1975 -426 0
375 1975 -426 0
375 -1975 426 0
-375 1975 426 0
-375 -1975 -426 0
376 -377 0
376 -379 0
-376 379 377 0
-377 380 0
-377 434 0
377 -434 -380 0
378 434 -380 0
378 -434 380 0
-378 434 380 0
-378 -434 -380 0
-379 431 0
-379 1993 0
379 -1993 -431 0
380 1993 -431 0
380 -1993 431 0
-380 1993 431 0
-380 -1993 -431 0
381 -382 0
381 -1541 0
-381 1541 382 0
-382 439 0
-382 1542 0
382 -1542 -439 0
383 1542 -439 0
383 -1542 439 0
-383 1542 439 0
-383 -1542 -439 0
384 -385 0
384 -387 0
-384 387 385 0
-385 388 0
-385 444 0
385 -444 -388 0
386 444 -388 0
386 -444 388 0
-386 444 388 0
-386 -444 -388 0
-387 441 0
-387 1850 0
387 -1850 -441 0
388 1850 -441 0
388 -1850 441 0
-388 1850 441 0
-388 -1850 -441 0
389 -390 0
389 -392 0
-389 392 390 0
-390 393 0
-390 449 0
390 -449 -393 0
391 449 -393 0
391 -449 393 0
-391 449 393 0
-391 -449 -393 0
-392 446 0
-392 1864 0
392 -1864 -446 0
393 1864 -446 0
393 -1864 446 0
-393 1864 446 0
-393 -1864 -446 0
394 -395 0
394 -397 0
-394 397 395 0
-395 398 0
-395 454 0
395 -454 -398 0
396 454 -398 0
396 -454 398 0
-396 454 398 0
-396 -454 -398 0
-397 451 0
-397 1878 0
397 -1878 -451 0
398 1878 -451 0
398 -1878 451 0
-398 1878 451 0
-398 -1878 -451 0
399 -400 0
399 -402 0
-399 402 400 0
-400 403 0
-400 459 0
400 -459 -403 0
401 459 -403 0
401 -459 403 0
-401 459 403 0
-401 -459 -403 0
-402 456 0
-402 1892 0
402 -1892 -456 0
403 1892 -456 0
403 -1892 456 0
-403 1892 456 0
-403 -1892 -456 0
404 -405 0
404 -407 0
-404 407 405 0
-405 408 0
-405 464 0
405 -464 -408 0
406 464 -408 0
406 -464 408 0
-406 464 408 0
-406 -464 -408 0
-407 461 0
-407 1906 0
407 -1906 -461 0
408 1906 -461 0
408 -1906 461 0
-408 1906 461 0
-408 -1906 -461 0
409 -410 0
409 -412 0
-409 412 410 0
-410 413 0
-410 469 0
410 -469 -413 0
411 469 -413 0
411 -469 413 0
-411 469 413 0
-411 -469 -413 0
-412 466 0
-412 1920 0
412 -1920 -466 0
413 1920 -466 0
413 -1920 466 0
-413 1920 466 0
-413 -1920 -466 0
414 -415 0
414 -417 0
-414 417 415 0
-415 418 0
-415 474 0
415 -474 -418 0
416 474 -418 0
416 -474 418 0
-416 474 418 0
-416 -474 -418 0
-417 471 0
-417 1934 0
417 -1934 -471 0
418 1934 -471 0
418 -1934 471 0
-418 1934 471 0
-418 -1934 -471 0
419 -420 0
419 -422 0
-419 422 420 0
-420 423 0
-420 479 0
420 -479 -423 0
421 479 -423 0
421 -479 423 0
-421 479 423 0
-421 -479 -423 0
-422 476 0
-422 1948 0
422 -1948 -476 0
423 1948 -476 0
423 -1948 476 0
-423 1948 476 0
-423 -1948 -476 0
424 -425 0
424 -427 0
-424 427 425 0
-425 428 0
-425 484 0
425 -484 -428 0
426 484 -428 0
426 -484 428 0
-426 484 428 0
-426 -484 -428 0
-427 481 0
-427 1962 0
427 -1962 -481 0
428 1962 -481 0
428 -1962 481 0
-428 1962 481 0
-428 -1962 -481 0
429 -430 0
429 -432 0
-429 432 430 0
-430 433 0
-430 489 0
430 -489 -433 0
431 489 -433 0
431 -489 433 0
-431 489 433 0
-431 -489 -433 0
-432 486 0
-432 1976 0
432 -1976 -486 0
433 1976 -486 0
433 -1976 486 0
-433 1976 486 0
-433 -1976 -486 0
434 -435 0
434 -437 0
-434 437 435 0
-435 438 0
-435 494 0
435 -494 -438 0
436 494 -438 0
436 -494 438 0
-436 494 438 0
-436 -494 -438 0
-437 491 0
-437 1995 0
437 -1995 -491 0
438 1995 -491 0
438 -1995 491 0
-438 1995 491 0
-438 -1995 -491 0
439 -440 0
439 -442 0
-439 442 440 0
-440 443 0
-440 499 0
440 -499 -443 0
441 499 -443 0
441 -499 443 0
-441 499 443 0
-441 -499 -443 0
-442 1824 0
-442 1837 0
442 -1837 -1824 0
443 1837 -1824 0
443 -1837 1824 0
-443 1837 1824 0
-443 -1837 -1824 0
444 -445 0
444 -447 0
-444 447 445 0
-445 448 0
-445 502 0
445 -502 -448 0
446 502 -448 0
446 -502 448 0
-446 502 448 0
-446 -502 -448 0
-447 501 0
-447 1851 0
447 -1851 -501 0
448 1851 -501 0
448 -1851 501 0
-448 1851 501 0
-448 -1851 -501 0
449 -450 0
449 -452 0
-449 452 450 0
-450 453 0
-450 507 0
450 -507 -453 0
451 507 -453 0
451 -507 453 0
-451 507 453 0
-451 -507 -453 0
-452 504 0
-452 1865 0
452 -1865 -504 0
453 1865 -504 0
453 -1865 504 0
-453 1865 504 0
-453 -1865 -504 0
454 -455 0
454 -457 0
-454 457 455 0
-455 458 0
-455 512 0
455 -512 -458 0
456 512 -458 0
456 -512 458 0
-456 512 458 0
-456 -512 -458 0
-457 509 0
-457 1879 0
457 -1879 -509 0
458 1879 -509 0
458 -1879 509 0
-458 1879 509 0
-458 -1879 -509 0
459 -460 0
459 -462 0
-459 462 460 0
-460 463 0
-460 517 0
460 -517 -463 0
461 517 -463 0
461 -517 463 0
-461 517 463 0
-461 -517 -463 0
-462 514 0
-462 1893 0
462 -1893 -514 0
463 1893 -514 0
463 -1893 514 0
-463 1893 514 0
-463 -1893 -514 0
464 -465 0
464 -467 0
-464 467 465 0
-465 468 0
-465 522 0
465 -522 -468 0
466 522 -468 0
466 -522 468 0
-466 522 468 0
-466 -522 -468 0
-467 519 0
-467 1907 0
467 -1907 -519 0
468 1907 -519 0
468 -1907 519 0
-468 1907 519 0
-468 -1907 -519 0
469 -470 0
469 -472 0
-469 472 470 0
-470 473 0
-470 527 0
470 -527 -473 0
471 527 -473 0
471 -527 473 0
-471 527 473 0
-471 -527 -473 0
-472 524 0
-472 1921 0
472 -1921 -524 0
473 1921 -524 0
473 -1921 524 0
-473 1921 524 0
-473 -1921 -524 0
474 -475 0
474 -477 0
-474 477 475 0
-475 478 0
-475 532 0
475 -532 -478 0
476 532 -478 0
476 -532 478 0
-476 532 478 0
-476 -532 -478 0
-477 529 0
-477 1935 0
477 -1935 -529 0
478 1935 -529 0
478 -1935 529 0
-478 1935 529 0
-478 -1935 -529 0
479 -480 0
479 -482 0
-479 482 480 0
-480 483 0
-480 537 0
480 -537 -483 0
481 537 -483 0
481 -537 483 0
-481 537 483 0
-481 -537 -483 0
-482 534 0
-482 1949 0
482 -1949 -534 0
483 1949 -534 0
483 -1949 534 0
-483 1949 534 0
-483 -1949 -534 0
484 -485 0
484 -487 0
-484 487 485 0
-485 488 0
-485 542 0
485 -542 -488 0
486 542 -488 0
486 -542 488 0
-486 542 488 0
-486 -542 -488 0
-487 539 0
-487 1963 0
487 -1963 -539 0
488 1963 -539 0
488 -1963 539 0
-488 1963 539 0
-488 -1963 -539 0
489 -490 0
489 -492 0
-489 492 490 0
-490 493 0
-490 547 0
490 -547 -493 0
491 547 -493 0
491 -547 493 0
-491 547 493 0
-491 -547 -493 0
-492 544 0
-492 1977 0
492 -1977 -544 0
493 1977 -544 0
493 -1977 544 0
-493 1977 544 0
-493 -1977 -544 0
494 -495 0
494 -497 0
-494 497 495 0
-495 498 0
-495 552 0
495 -552 -498 0
496 552 -498 0
496 -552 498 0
-496 552 498 0
-496 -552 -498 0
-497 549 0
-497 1997 0
497 -1997 -549 0
498 1997 -549 0
498 -1997 549 0
-498 1997 549 0
-498 -1997 -549 0
499 -500 0
499 -1622 0
-499 1622 500 0
-500 557 0
-500 1623 0
500 -1623 -557 0
501 1623 -557 0
501 -1623 557 0
-501 1623 557 0
-501 -1623 -557 0
502 -503 0
502 -505 0
-502 505 503 0
-503 506 0
-503 562 0
503 -562 -506 0
504 562 -506 0
504 -562 506 0
-504 562 506 0
-504 -562 -506 0
-505 559 0
-505 1852 0
505 -1852 -559 0
506 1852 -559 0
506 -1852 559 0
-506 1852 559 0
-506 -1852 -559 0
507 -508 0
507 -510 0
-507 510 508 0
-508 511 0
-508 567 0
508 -567 -511 0
509 567 -511 0
509 -567 511 0
-509 567 511 0
-509 -567 -511 0
-510 564 0
-510 1866 0
510 -1866 -564 0
511 1866 -564 0
511 -1866 564 0
-511 1866 564 0
-511 -1866 -564 0
512 -513 0
512 -515 0
-512 515 513 0
-513 516 0
-513 572 0
513 -572 -516 0
514 572 -516 0
514 -572 516 0
-514 572 516 0
-514 -572 -516 0
-515 569 0
-515 1880 0
515 -1880 -569 0
516 1880 -569 0
516 -1880 569 0
-516 1880 569 0
-516 -1880 -569 0
517 -518 0
517 -520 0
-517 520 518 0
-518 521 0
-518 577 0
518 -577 -521 0
519 577 -521 0
519 -577 521 0
-519 577 521 0
-519 -577 -521 0
-520 574 0
-520 1894 0
520 -1894 -574 0
521 1894 -574 0
521 -1894 574 0
-521 1894 574 0
-521 -1894 -574 0
522 -523 0
522 -525 0
-522 525 523 0
-523 526 0
-523 582 0
523 -582 -526 0
524 582 -526 0
524 -582 526 0
-524 582 526 0
-524 -582 -526 0
-525 579 0
-525 1908 0
525 -1908 -579 0
526 1908 -579 0
526 -1908 579 0
-526 1908 579 0
-526 -1908 -579 0
527 -528 0
527 -530 0
-527 530 528 0
-528 531 0
-528 587 0
528 -587 -531 0
529 587 -531 0
529 -587 531 0
-529 587 531 0
-529 -587 -531 0
-530 584 0
-530 1922 0
530 -1922 -584 0
531 1922 -584 0
531 -1922 584 0
-531 1922 584 0
-531 -1922 -584 0
532 -533 0
532 -535 0
-532 535 533 0
-533 536 0
-533 592 0
533 -592 -536 0
534 592 -536 0
534 -592 536 0
-534 592 536 0
-534 -592 -536 0
-535 589 0
-535 1936 0
535 -1936 -589 0
536 1936 -589 0
536 -1936 589 0
-536 1936 589 0
-536 -1936 -589 0
537 -538 0
537 -540 0
-537 540 538 0
-538 541 0
-538 597 0
538 -597 -541 0
539 597 -541 0
539 -597 541 0
-539 597 541 0
-539 -597 -541 0
-540 594 0
-540 1950 0
540 -1950 -594 0
541 1950 -594 0
541 -1950 594 0
-541 1950 594 0
-541 -1950 -594 0
542 -543 0
542 -545 0
-542 545 543 0
-543 546 0
-543 602 0
543 -602 -546 0
544 602 -546 0
544 -602 546 0
-544 602 546 0
-544 -602 -546 0
-545 599 0
-545 1964 0
545 -1964 -599 0
546 1964 -599 0
546 -1964 599 0
-546 1964 599 0
-546 -1964 -599 0
547 -548 0
547 -550 0
-547 550 548 0
-548 551 0
-548 607 0
548 -607 -551 0
549 607 -551 0
549 -607 551 0
-549 607 551 0
-549 -607 -551 0
-550 604 0
-550 1978 0
550 -1978 -604 0
551 1978 -604 0
551 -1978 604 0
-551 1978 604 0
-551 -1978 -604 0
552 -553 0
552 -555 0
-552 555 553 0
-553 556 0
-553 612 0
553 -612 -556 0
554 612 -556 0
554 -612 556 0
-554 612 556 0
-554 -612 -556 0
-555 609 0
-555 1999 0
555 -1999 -609 0
556 1999 -609 0
556 -1999 609 0
-556 1999 609 0
-556 -1999 -609 0
557 -558 0
557 -560 0
-557 560 558 0
-558 561 0
-558 617 0
558 -617 -561 0
559 617 -561 0
559 -617 561 0
-559 617 561 0
-559 -617 -561 0
-560 1826 0
-560 1839 0
560 -1839 -1826 0
561 1839 -1826 0
561 -1839 1826 0
-561 1839 1826 0
-561 -1839 -1826 0
562 -563 0
562 -565 0
-562 565 563 0
-563 566 0
-563 620 0
563 -620 -566 0
564 620 -566 0
564 -620 566 0
-564 620 566 0
-564 -620 -566 0
-565 619 0
-565 1853 0
565 -1853 -619 0
566 1853 -619 0
566 -1853 619 0
-566 1853 619 0
-566 -1853 -619 0
567 -568 0
567 -570 0
-567 570 568 0
-568 571 0
-568 625 0
568 -625 -571 0
569 625 -571 0
569 -625 571 0
-569 625 571 0
-569 -625 -571 0
-570 622 0
-570 1867 0
570 -1867 -622 0
571 1867 -622 0
571 -1867 622 0
-571 1867 622 0
-571 -1867 -622 0
572 -573 0
572 -575 0
-572 575 573 0
-573 576 0
-573 630 0
573 -630 -576 0
574 630 -576 0
574 -630 576 0
-574 630 576 0
-574 -630 -576 0
-575 627 0
-575 1881 0
575 -1881 -627 0
576 1881 -627 0
576 -1881 627 0
-576 1881 627 0
-576 -1881 -627 0
577 -578 0
577 -580 0
-577 580 578 0
-578 581 0
-578 635 0
578 -635 -581 0
579 635 -581 0
579 -635 581 0
-579 635 581 0
-579 -635 -581 0
-580 632 0
-580 1895 0
580 -1895 -632 0
581 1895 -632 0
581 -1895 632 0
-581 1895 632 0
-581 -1895 -632 0
582 -583 0
582 -585 0
-582 585 583 0
-583 586 0
-583 640 0
583 -640 -586 0
584 640 -586 0
584 -640 586 0
-584 640 586 0
-584 -640 -586 0
-585 637 0
-585 1909 0
585 -1909 -637 0
586 1909 -637 0
586 -1909 637 0
-586 1909 637 0
-586 -1909 -637 0
587 -588 0
587 -590 0
-587 590 588 0
-588 591 0
-588 645 0
588 -645 -591 0
589 645 -591 0
589 -645 591 0
-589 645 591 0
-589 -645 -591 0
-590 642 0
-590 1923 0
590 -1923 -642 0
591 1923 -642 0
591 -1923 642 0
-591 1923 642 0
-591 -1923 -642 0
592 -593 0
592 -595 0
-592 595 593 0
-593 596 0
-593 650 0
593 -650 -596 0
594 650 -596 0
594 -650 596 0
-594 650 596 0
-594 -650 -596 0
-595 647 0
-595 1937 0
595 -1937 -647 0
596 1937 -647 0
596 -1937 647 0
-596 1937 647 0
-596 -1937 -647 0
597 -598 0
597 -600 0
-597 600 598 0
-598 601 0
-598 655 0
598 -655 -601 0
599 655 -601 0
599 -655 601 0
-599 655 601 0
-599 -655 -601 0
-600 652 0
-600 1951 0
600 -1951 -652 0
601 1951 -652 0
601 -1951 652 0
-601 1951 652 0
-601 -1951 -652 0
602 -603 0
602 -605 0
-602 605 603 0
-603 606 0
-603 660 0
603 -660 -606 0
604 660 -606 0
604 -660 606 0
-604 660 606 0
-604 -660 -606 0
-605 657 0
-605 1965 0
605 -1965 -657 0
606 1965 -657 0
606 -1965 657 0
-606 1965 657 0
-606 -1965 -657 0
607 -608 0
607 -610 0
-607 610 608 0
-608 611 0
-608 665 0
608 -665 -611 0
609 665 -611 0
609 -665 611 0
-609 665 611 0
-609 -665 -611 0
-610 662 0
-610 1979 0
610 -1979 -662 0
611 1979 -662 0
611 -1979 662 0
-611 1979 662 0
-611 -1979 -662 0
612 -613 0
612 -615 0
-612 615 613 0
-613 616 0
-613 670 0
613 -670 -616 0
614 670 -616 0
614 -670 616 0
-614 670 616 0
-614 -670 -616 0
-615 667 0
-615 2001 0
615 -2001 -667 0
616 2001 -667 0
616 -2001 667 0
-616 2001 667 0
-616 -2001 -667 0
617 -618 0
617 -1703 0
-617 1703 618 0
-618 675 0
-618 1704 0
618 -1704 -675 0
619 1704 -675 0
619 -1704 675 0
-619 1704 675 0
-619 -1704 -675 0
620 -621 0
620 -623 0
-620 623 621 0
-621 624 0
-621 680 0
621 -680 -624 0
622 680 -624 0
622 -680 624 0
-622 680 624 0
-622 -680 -624 0
-623 677 0
-623 1854 0
623 -1854 -677 0
624 1854 -677 0
624 -1854 677 0
-624 1854 677 0
-624 -1854 -677 0
625 -626 0
625 -628 0
-625 628 626 0
-626 629 0
-626 685 0
626 -685 -629 0
627 685 -629 0
627 -685 629 0
-627 685 629 0
-627 -685 -629 0
-628 682 0
-628 1868 0
628 -1868 -682 0
629 1868 -682 0
629 -1868 682 0
-629 1868 682 0
-629 -1868 -682 0
630 -631 0
630 -633 0
-630 633 631 0
-631 634 0
-631 690 0
631 -690 -634 0
632 690 -634 0
632 -690 634 0
-632 690 634 0
-632 -690 -634 0
-633 687 0
-633 1882 0
633 -1882 -687 0
634 1882 -687 0
634 -1882 687 0
-634 1882 687 0
-634 -1882 -687 0
635 -636 0
635 -638 0
-635 638 636 0
-636 639 0
-636 695 0
636 -695 -639 0
637 695 -639 0
637 -695 639 0
-637 695 639 0
-637 -695 -639 0
-638 692 0
-638 1896 0
638 -1896 -692 0
639 1896 -692 0
639 -1896 692 0
-639 1896 692 0
-639 -1896 -692 0
640 -641 0
640 -643 0
-640 643 641 0
-641 644 0
-641 700 0
641 -700 -644 0
642 700 -644 0
642 -700 644 0
-642 700 644 0
-642 -700 -644 0
-643 697 0
-643 1910 0
643 -1910 -697 0
644 1910 -697 0
644 -1910 697 0
-644 1910 697 0
-644 -1910 -697 0
645 -646 0
645 -648 0
-645 648 646 0
-646 649 0
-646 705 0
646 -705 -649 0
647 705 -649 0
647 -705 649 0
-647 705 649 0
-647 -705 -649 0
-648 702 0
-648 1924 0
648 -1924 -702 0
649 1924 -702 0
649 -1924 702 0
-649 1924 702 0
-649 -1924 -702 0
650 -651 0
650 -653 0
-650 653 651 0
-651 654 0
-651 710 0
651 -710 -654 0
652 710 -654 0
652 -710 654 0
-652 710 654 0
-652 -710 -654 0
-653 707 0
-653 1938 0
653 -1938 -707 0
654 1938 -707 0
654 -1938 707 0
-654 1938 707 0
-654 -1938 -707 0
655 -656 0
655 -658 0
-655 658 656 0
-656 659 0
-656 715 0
656 -715 -659 0
657 715 -659 0
657 -715 659 0
-657 715 659 0
-657 -715 -659 0
-658 712 0
-658 1952 0
658 -1952 -712 0
659 1952 -712 0
659 -1952 712 0
-659 1952 712 0
-659 -1952 -712 0
660 -661 0
660 -663 0
-660 663 661 0
-661 664 0
-661 720 0
661 -720 -664 0
662 720 -664 0
662 -720 664 0
-662 720 664 0
-662 -720 -664 0
-663 717 0
-663 1966 0
663 -1966 -717 0
664 1966 -717 0
664 -1966 717 0
-664 1966 717 0
-664 -1966 -717 0
665 -666 0
665 -668 0
-665 668 666 0
-666 669 0
-666 725 0
666 -725 -669 0
667 725 -669 0
667 -725 669 0
-667 725 669 0
-667 -725 -669 0
-668 722 0
-668 1980 0
668 -1980 -722 0
669 1980 -722 0
669 -1980 722 0
-669 1980 722 0
-669 -1980 -722 0
670 -671 0
670 -673 0
-670 673 671 0
-671 674 0
-671 730 0
671 -730 -674 0
672 730 -674 0
672 -730 674 0
-672 730 674 0
-672 -730 -674 0
-673 727 0
-673 2003 0
673 -2003 -727 0
674 2003 -727 0
674 -2003 727 0
-674 2003 727 0
-674 -2003 -727 0
675 -676 0
675 -678 0
-675 678 676 0
-676 679 0
-676 1784 0
676 -1784 -679 0
677 1784 -679 0
677 -1784 679 0
-677 1784 679 0
-677 -1784 -679 0
-678 1828 0
-678 1841 0
678 -1841 -1828 0
679 1841 -1828 0
679 -1841 1828 0
-679 1841 1828 0
-679 -1841 -1828 0
680 -681 0
680 -683 0
-680 683 681 0
-681 684 0
-681 1787 0
681 -1787 -684 0
682 1787 -684 0
682 -1787 684 0
-682 1787 684 0
-682 -1787 -684 0
-683 1785 0
-683 1855 0
683 -1855 -1785 0
684 1855 -1785 0
684 -1855 1785 0
-684 1855 1785 0
-684 -1855 -1785 0
685 -686 0
685 -688 0
-685 688 686 0
-686 689 0
-686 1790 0
686 -1790 -689 0
687 1790 -689 0
687 -1790 689 0
-687 1790 689 0
-687 -1790 -689 0
-688 1788 0
-688 1869 0
688 -1869 -1788 0
689 1869 -1788 0
689 -1869 1788 0
-689 1869 1788 0
-689 -1869 -1788 0
690 -691 0
690 -693 0
-690 693 691 0
-691 694 0
-691 1793 0
691 -1793 -694 0
692 1793 -694 0
692 -1793 694 0
-692 1793 694 0
-692 -1793 -694 0
-693 1791 0
-693 1883 0
693 -1883 -1791 0
694 1883 -1791 0
694 -1883 1791 0
-694 1883 1791 0
-694 -1883 -1791 0
695 -696 0
695 -698 0
-695 698 696 0
-696 699 0
-696 1796 0
696 -1796 -699 0
697 1796 -699 0
697 -1796 699 0
-697 1796 699 0
-697 -1796 -699 0
-698 1794 0
-698 1897 0
698 -1897 -1794 0
699 1897 -1794 0
699 -1897 1794 0
-699 1897 1794 0
-699 -1897 -1794 0
700 -701 0
700 -703 0
-700 703 701 0
-701 704 0
-701 1799 0
701 -1799 -704 0
702 1799 -704 0
702 -1799 704 0
-702 1799 704 0
-702 -1799 -704 0
-703 1797 0
-703 1911 0
703 -1911 -1797 0
704 1911 -1797 0
704 -1911 1797 0
-704 1911 1797 0
-704 -1911 -1797 0
705 -706 0
705 -708 0
-705 708 706 0
-706 709 0
-706 1802 0
706 -1802 -709 0
707 1802 -709 0
707 -1802 709 0
-707 1802 709 0
-707 -1802 -709 0
-708 1800 0
-708 1925 0
708 -1925 -1800 0
709 1925 -1800 0
709 -1925 1800 0
-709 1925 1800 0
-709 -1925 -1800 0
710 -711 0
710 -713 0
-710 713 711 0
-711 714 0
-711 1805 0
711 -1805 -714 0
712 1805 -714 0
712 -1805 714 0
-712 1805 714 0
-712 -1805 -714 0
-713 1803 0
-713 1939 0
713 -1939 -1803 0
714 1939 -1803 0
714 -1939 1803 0
-714 1939 1803 0
-714 -1939 -1803 0
715 -716 0
715 -718 0
-715 718 716 0
-716 719 0
-716 1808 0
716 -1808 -719 0
717 1808 -719 0
717 -1808 719 0
-717 1808 719 0
-717 -1808 -719 0
-718 1806 0
-718 1953 0
718 -1953 -1806 0
719 1953 -1806 0
719 -1953 1806 0
-719 1953 1806 0
-719 -1953 -1806 0
720 -721 0
720 -723 0
-720 723 721 0
-721 724 0
-721 1811 0
721 -1811 -724 0
722 1811 -724 0
722 -1811 724 0
-722 1811 724 0
-722 -1811 -724 0
-723 1809 0
-723 1967 0
723 -1967 -1809 0
724 1967 -1809 0
724 -1967 1809 0
-724 1967 1809 0
-724 -1967 -1809 0
725 -726 0
725 -728 0
-725 728 726 0
-726 729 0
-726 1814 0
726 -1814 -729 0
727 1814 -729 0
727 -1814 729 0
-727 1814 729 0
-727 -1814 -729 0
-728 1812 0
-728 1981 0
728 -1981 -1812 0
729 1981 -1812 0
729 -1981 1812 0
-729 1981 1812 0
-729 -1981 -1812 0
730 -731 0
730 -733 0
-730 733 731 0
-731 734 0
-731 1816 0
731 -1816 -734 0
732 1816 -734 0
732 -1816 734 0
-732 1816 734 0
-732 -1816 -734 0
-733 1815 0
-733 2005 0
733 -2005 -1815 0
734 2005 -1815 0
734 -2005 1815 0
-734 2005 1815 0
-734 -2005 -1815 0
735 -736 0
735 -738 0
735 -743 0
735 -744 0
735 -745 0
-735 745 744 743 738 736 0
-736 747 0
-736 758 0
736 -758 -747 0
737 -739 0
737 -758 0
-737 758 739 0
-738 739 0
-738 747 0
738 -747 -739 0
-739 770 0
-739 811 0
739 -811 -770 0
740 -741 0
740 -773 0
740 -774 0
740 -775 0
740 -822 0
-740 822 775 774 773 741 0
-741 777 0
-741 788 0
741 -788 -777 0
-742 735 0
-742 891 0
742 -891 -735 0
-743 801 0
-743 894 0
743 -894 -801 0
-744 751 0
-744 894 0
744 -894 -751 0
-745 752 0
-745 894 0
745 -894 -752 0
-746 805 0
-746 807 0
746 -807 -805 0
-747 748 0
-747 894 0
747 -894 -748 0
-748 749 0
-748 802 0
748 -802 -749 0
-749 805 0
-749 808 0
749 -808 -805 0
750 -751 0
750 -752 0
750 -755 0
750 -801 0
-750 801 755 752 751 0
-751 802 0
-751 804 0
751 -804 -802 0
-752 746 0
-752 802 0
752 -802 -746 0
753 -746 0
753 -756 0
753 -804 0
-753 804 756 746 0
754 -757 0
754 -807 0
-754 807 757 0
-755 737 0
-755 748 0
755 -748 -737 0
-756 737 0
-756 749 0
756 -749 -737 0
-757 737 0
-757 808 0
757 -808 -737 0
758 -759 0
758 -760 0
758 -761 0
758 -810 0
-758 810 761 760 759 0
-759 811 0
-759 813 0
759 -813 -811 0
-760 766 0
-760 811 0
760 -811 -766 0
-761 767 0
-761 811 0
761 -811 -767 0
-762 817 0
-762 819 0
762 -819 -817 0
-763 764 0
-763 814 0
763 -814 -764 0
-764 817 0
-764 820 0
764 -820 -817 0
765 -766 0
765 -767 0
765 -770 0
765 -813 0
-765 813 770 767 766 0
-766 814 0
-766 816 0
766 -816 -814 0
-767 762 0
-767 814 0
767 -814 -762 0
768 -762 0
768 -771 0
768 -816 0
-768 816 771 762 0
769 -772 0
769 -819 0
-769 819 772 0
-770 740 0
-770 763 0
770 -763 -740 0
-771 740 0
-771 764 0
771 -764 -740 0
-772 740 0
-772 820 0
772 -820 -740 0
-773 823 0
-773 825 0
773 -825 -823 0
-774 781 0
-774 823 0
774 -823 -781 0
-775 782 0
-775 823 0
775 -823 -782 0
-776 829 0
-776 831 0
776 -831 -829 0
-777 778 0
-777 823 0
777 -823 -778 0
-778 779 0
-778 826 0
778 -826 -779 0
-779 829 0
-779 832 0
779 -832 -829 0
780 -781 0
780 -782 0
780 -785 0
780 -825 0
-780 825 785 782 781 0
-781 826 0
-781 828 0
781 -828 -826 0
-782 776 0
-782 826 0
782 -826 -776 0
783 -776 0
783 -786 0
783 -828 0
-783 828 786 776 0
784 -787 0
784 -831 0
-784 831 787 0
-785 778 0
-785 788 0
785 -788 -778 0
-786 779 0
-786 788 0
786 -788 -779 0
-787 788 0
-787 832 0
787 -832 -788 0
788 -789 0
788 -790 0
788 -791 0
788 -834 0
-788 834 791 790 789 0
-789 835 0
-789 837 0
789 -837 -835 0
-790 794 0
-790 835 0
790 -835 -794 0
-791 795 0
-791 835 0
791 -835 -795 0
-792 841 0
-792 842 0
792 -842 -841 0
793 -794 0
793 -795 0
793 -837 0
-793 837 795 794 0
-794 838 0
-794 840 0
794 -840 -838 0
-795 792 0
-795 838 0
795 -838 -792 0
796 -792 0
796 -840 0
-796 840 792 0
797 849 -742 0
797 -849 742 0
-797 849 742 0
-797 -849 -742 0
798 891 -735 0
798 -891 735 0
-798 891 735 0
-798 -891 -735 0
799 894 -750 0
799 -894 750 0
-799 894 750 0
-799 -894 -750 0
800 802 -753 0
800 -802 753 0
-800 802 753 0
-800 -802 -753 0
-801 897 0
-801 936 0
801 -936 -897 0
802 936 -897 0
802 -936 897 0
-802 936 897 0
-802 -936 -897 0
803 805 -754 0
803 -805 754 0
-803 805 754 0
-803 -805 -754 0
-804 900 0
-804 991 0
804 -991 -900 0
805 991 -900 0
805 -991 900 0
-805 991 900 0
-805 -991 -900 0
806 808 -737 0
806 -808 737 0
-806 808 737 0
-806 -808 -737 0
-807 903 0
-807 992 0
807 -992 -903 0
808 992 -903 0
808 -992 903 0
-808 992 903 0
-808 -992 -903 0
809 811 -765 0
809 -811 765 0
-809 811 765 0
-809 -811 -765 0
-810 906 0
-810 993 0
810 -993 -906 0
811 993 -906 0
811 -993 906 0
-811 993 906 0
-811 -993 -906 0
812 814 -768 0
812 -814 768 0
-812 814 768 0
-812 -814 -768 0
-813 909 0
-813 994 0
813 -994 -909 0
814 994 -909 0
814 -994 909 0
-814 994 909 0
-814 -994 -909 0
815 817 -769 0
815 -817 769 0
-815 817 769 0
-815 -817 -769 0
-816 912 0
-816 995 0
816 -995 -912 0
817 995 -912 0
817 -995 912 0
-817 995 912 0
-817 -995 -912 0
818 820 -740 0
818 -820 740 0
-818 820 740 0
-818 -820 -740 0
-819 915 0
-819 998 0
819 -998 -915 0
820 998 -915 0
820 -998 915 0
-820 998 915 0
-820 -998 -915 0
821 823 -780 0
821 -823 780 0
-821 823 780 0
-821 -823 -780 0
-822 918 0
-822 1001 0
822 -1001 -918 0
823 1001 -918 0
823 -1001 918 0
-823 1001 918 0
-823 -1001 -918 0
824 826 -783 0
824 -826 783 0
-824 826 783 0
-824 -826 -783 0
-825 921 0
-825 1004 0
825 -1004 -921 0
826 1004 -921 0
826 -1004 921 0
-826 1004 921 0
-826 -1004 -921 0
827 829 -784 0
827 -829 784 0
-827 829 784 0
-827 -829 -784 0
-828 924 0
-828 1007 0
828 -1007 -924 0
829 1007 -924 0
829 -1007 924 0
-829 1007 924 0
-829 -1007 -924 0
830 832 -788 0
830 -832 788 0
-830 832 788 0
-830 -832 -788 0
-831 928 0
-831 1010 0
831 -1010 -928 0
832 1010 -928 0
832 -1010 928 0
-832 1010 928 0
-832 -1010 -928 0
833 835 -793 0
833 -835 793 0
-833 835 793 0
-833 -835 -793 0
-834 1013 0
-834 1129 0
834 -1129 -1013 0
835 1129 -1013 0
835 -1129 1013 0
-835 1129 1013 0
-835 -1129 -1013 0
836 838 -796 0
836 -838 796 0
-836 838 796 0
-836 -838 -796 0
-837 1133 0
-837 1016 0
837 -1016 -1133 0
838 1016 -1133 0
838 -1016 1133 0
-838 1016 1133 0
-838 -1016 -1133 0
839 842 -841 0
839 -842 841 0
-839 842 841 0
-839 -842 -841 0
-840 1019 0
-840 1493 0
840 -1493 -1019 0
841 1493 -1019 0
841 -1493 1019 0
-841 1493 1019 0
-841 -1493 -1019 0
-842 1022 0
-842 1993 0
842 -1993 -1022 0
843 1993 -1022 0
843 -1993 1022 0
-843 1993 1022 0
-843 -1993 -1022 0
844 -845 0
844 -846 0
844 -851 0
844 -852 0
844 -853 0
844 -895 0
-844 895 853 852 851 846 845 0
-845 855 0
-845 866 0
845 -866 -855 0
-846 848 0
-846 855 0
846 -855 -848 0
847 -848 0
847 -866 0
-847 866 848 0
-848 871 0
-848 882 0
848 -882 -871 0
849 -850 0
849 -892 0
-849 892 850 0
-850 844 0
-850 893 0
850 -893 -844 0
-851 896 0
-851 898 0
851 -898 -896 0
-852 859 0
-852 896 0
852 -896 -859 0
-853 860 0
-853 896 0
853 -896 -860 0
-854 902 0
-854 904 0
854 -904 -902 0
-855 856 0
-855 896 0
855 -896 -856 0
-856 857 0
-856 899 0
856 -899 -857 0
-857 902 0
-857 905 0
857 -905 -902 0
858 -859 0
858 -860 0
858 -863 0
858 -898 0
-858 898 863 860 859 0
-859 899 0
-859 901 0
859 -901 -899 0
-860 854 0
-860 899 0
860 -899 -854 0
861 -854 0
861 -864 0
861 -901 0
-861 901 864 854 0
862 -865 0
862 -904 0
-862 904 865 0
-863 847 0
-863 856 0
863 -856 -847 0
-864 847 0
-864 857 0
864 -857 -847 0
-865 847 0
-865 905 0
865 -905 -847 0
866 -867 0
866 -868 0
866 -869 0
866 -907 0
-866 907 869 868 867 0
-867 908 0
-867 910 0
867 -910 -908 0
-868 875 0
-868 908 0
868 -908 -875 0
-869 876 0
-869 908 0
869 -908 -876 0
-870 914 0
-870 916 0
870 -916 -914 0
-871 872 0
-871 908 0
871 -908 -872 0
-872 873 0
-872 911 0
872 -911 -873 0
-873 914 0
-873 917 0
873 -917 -914 0
874 -875 0
874 -876 0
874 -879 0
874 -910 0
-874 910 879 876 875 0
-875 911 0
-875 913 0
875 -913 -911 0
-876 870 0
-876 911 0
876 -911 -870 0
877 -870 0
877 -880 0
877 -913 0
-877 913 880 870 0
878 -881 0
878 -916 0
-878 916 881 0
-879 872 0
-879 882 0
879 -882 -872 0
-880 873 0
-880 882 0
880 -882 -873 0
-881 882 0
-881 917 0
881 -917 -882 0
882 -883 0
882 -884 0
882 -885 0
882 -919 0
-882 919 885 884 883 0
-883 920 0
-883 922 0
883 -922 -920 0
-884 888 0
-884 920 0
884 -920 -888 0
-885 889 0
-885 920 0
885 -920 -889 0
-886 926 0
-886 927 0
886 -927 -926 0
887 -888 0
887 -889 0
887 -922 0
-887 922 889 888 0
-888 923 0
-888 925 0
888 -925 -923 0
-889 886 0
-889 923 0
889 -923 -886 0
890 -886 0
890 -925 0
-890 925 886 0
891 893 -844 0
891 -893 844 0
-891 893 844 0
-891 -893 -844 0
-892 1094 0
-892 1817 0
892 -1817 -1094 0
893 1817 -1094 0
893 -1817 1094 0
-893 1817 1094 0
-893 -1817 -1094 0
894 896 -858 0
894 -896 858 0
-894 896 858 0
-894 -896 -858 0
-895 1095 0
-895 1831 0
895 -1831 -1095 0
896 1831 -1095 0
896 -1831 1095 0
-896 1831 1095 0
-896 -1831 -1095 0
897 899 -861 0
897 -899 861 0
-897 899 861 0
-897 -899 -861 0
-898 1096 0
-898 1845 0
898 -1845 -1096 0
899 1845 -1096 0
899 -1845 1096 0
-899 1845 1096 0
-899 -1845 -1096 0
900 902 -862 0
900 -902 862 0
-900 902 862 0
-900 -902 -862 0
-901 1099 0
-901 1859 0
901 -1859 -1099 0
902 1859 -1099 0
902 -1859 1099 0
-902 1859 1099 0
-902 -1859 -1099 0
903 905 -847 0
903 -905 847 0
-903 905 847 0
-903 -905 -847 0
-904 1102 0
-904 1873 0
904 -1873 -1102 0
905 1873 -1102 0
905 -1873 1102 0
-905 1873 1102 0
-905 -1873 -1102 0
906 908 -874 0
906 -908 874 0
-906 908 874 0
-906 -908 -874 0
-907 1105 0
-907 1887 0
907 -1887 -1105 0
908 1887 -1105 0
908 -1887 1105 0
-908 1887 1105 0
-908 -1887 -1105 0
909 911 -877 0
909 -911 877 0
-909 911 877 0
-909 -911 -877 0
-910 1108 0
-910 1901 0
910 -1901 -1108 0
911 1901 -1108 0
911 -1901 1108 0
-911 1901 1108 0
-911 -1901 -1108 0
912 914 -878 0
912 -914 878 0
-912 914 878 0
-912 -914 -878 0
-913 1111 0
-913 1915 0
913 -1915 -1111 0
914 1915 -1111 0
914 -1915 1111 0
-914 1915 1111 0
-914 -1915 -1111 0
915 917 -882 0
915 -917 882 0
-915 917 882 0
-915 -917 -882 0
-916 1114 0
-916 1929 0
916 -1929 -1114 0
917 1929 -1114 0
917 -1929 1114 0
-917 1929 1114 0
-917 -1929 -1114 0
918 920 -887 0
918 -920 887 0
-918 920 887 0
-918 -920 -887 0
-919 1117 0
-919 1943 0
919 -1943 -1117 0
920 1943 -1117 0
920 -1943 1117 0
-920 1943 1117 0
-920 -1943 -1117 0
921 923 -890 0
921 -923 890 0
-921 923 890 0
-921 -923 -890 0
-922 1120 0
-922 1957 0
922 -1957 -1120 0
923 1957 -1120 0
923 -1957 1120 0
-923 1957 1120 0
-923 -1957 -1120 0
924 927 -926 0
924 -927 926 0
-924 927 926 0
-924 -927 -926 0
-925 1123 0
-925 1971 0
925 -1971 -1123 0
926 1971 -1123 0
926 -1971 1123 0
-926 1971 1123 0
-926 -1971 -1123 0
-927 1126 0
-927 1985 0
927 -1985 -1126 0
928 1985 -1126 0
928 -1985 1126 0
-928 1985 1126 0
-928 -1985 -1126 0
929 -930 0
929 -938 0
929 -939 0
-929 939 938 930 0
-930 948 0
-930 1194 0
930 -1194 -948 0
931 -932 0
931 -933 0
931 -951 0
931 -952 0
931 -953 0
931 -1002 0
-931 1002 953 952 951 933 932 0
-932 955 0
-932 966 0
932 -966 -955 0
-933 935 0
-933 955 0
933 -955 -935 0
934 -935 0
934 -966 0
-934 966 935 0
-935 971 0
-935 982 0
935 -982 -971 0
-936 937 0
-936 1143 0
936 -1143 -937 0
-937 929 0
-937 1193 0
937 -1193 -929 0
-938 943 0
-938 1194 0
938 -1194 -943 0
-939 944 0
-939 1194 0
939 -1194 -944 0
-940 941 0
-940 1195 0
940 -1195 -941 0
-941 997 0
-941 1000 0
941 -1000 -997 0
942 -943 0
942 -944 0
942 -948 0
-942 948 944 943 0
-943 996 0
-943 1195 0
943 -1195 -996 0
-944 946 0
-944 1195 0
944 -1195 -946 0
945 -946 0
945 -949 0
945 -996 0
-945 996 949 946 0
-946 997 0
-946 999 0
946 -999 -997 0
947 -950 0
947 -999 0
-947 999 950 0
-948 931 0
-948 940 0
948 -940 -931 0
-949 931 0
-949 941 0
949 -941 -931 0
-950 931 0
-950 1000 0
950 -1000 -931 0
-951 1003 0
-951 1005 0
951 -1005 -1003 0
-952 959 0
-952 1003 0
952 -1003 -959 0
-953 960 0
-953 1003 0
953 -1003 -960 0
-954 1009 0
-954 1011 0
954 -1011 -1009 0
-955 956 0
-955 1003 0
955 -1003 -956 0
-956 957 0
-956 1006 0
956 -1006 -957 0
-957 1009 0
-957 1012 0
957 -1012 -1009 0
958 -959 0
958 -960 0
958 -963 0
958 -1005 0
-958 1005 963 960 959 0
-959 1006 0
-959 1008 0
959 -1008 -1006 0
-960 954 0
-960 1006 0
960 -1006 -954 0
961 -954 0
961 -964 0
961 -1008 0
-961 1008 964 954 0
962 -965 0
962 -1011 0
-962 1011 965 0
-963 934 0
-963 956 0
963 -956 -934 0
-964 934 0
-964 957 0
964 -957 -934 0
-965 934 0
-965 1012 0
965 -1012 -934 0
966 -967 0
966 -968 0
966 -969 0
966 -1014 0
-966 1014 969 968 967 0
-967 1015 0
-967 1017 0
967 -1017 -1015 0
-968 975 0
-968 1015 0
968 -1015 -975 0
-969 976 0
-969 1015 0
969 -1015 -976 0
-970 1021 0
-970 1023 0
970 -1023 -1021 0
-971 972 0
-971 1015 0
971 -1015 -972 0
-972 973 0
-972 1018 0
972 -1018 -973 0
-973 1021 0
-973 1024 0
973 -1024 -1021 0
974 -975 0
974 -976 0
974 -979 0
974 -1017 0
-974 1017 979 976 975 0
-975 1018 0
-975 1020 0
975 -1020 -1018 0
-976 970 0
-976 1018 0
976 -1018 -970 0
977 -970 0
977 -980 0
977 -1020 0
-977 1020 980 970 0
978 -981 0
978 -1023 0
-978 1023 981 0
-979 972 0
-979 982 0
979 -982 -972 0
-980 973 0
-980 982 0
980 -982 -973 0
-981 982 0
-981 1024 0
981 -1024 -982 0
982 -983 0
982 -984 0
982 -985 0
982 -1026 0
-982 1026 985 984 983 0
-983 1027 0
-983 1029 0
983 -1029 -1027 0
-984 988 0
-984 1027 0
984 -1027 -988 0
-985 989 0
-985 1027 0
985 -1027 -989 0
-986 1033 0
-986 1034 0
986 -1034 -1033 0
987 -988 0
987 -989 0
987 -1029 0
-987 1029 989 988 0
-988 1030 0
-988 1032 0
988 -1032 -1030 0
-989 986 0
-989 1030 0
989 -1030 -986 0
990 -986 0
990 -1032 0
-990 1032 986 0
991 1143 -937 0
991 -1143 937 0
-991 1143 937 0
-991 -1143 -937 0
992 1193 -929 0
992 -1193 929 0
-992 1193 929 0
-992 -1193 -929 0
993 1194 -942 0
993 -1194 942 0
-993 1194 942 0
-993 -1194 -942 0
994 1195 -945 0
994 -1195 945 0
-994 1195 945 0
-994 -1195 -945 0
995 997 -947 0
995 -997 947 0
-995 997 947 0
-995 -997 -947 0
-996 1198 0
-996 1242 0
996 -1242 -1198 0
997 1242 -1198 0
997 -1242 1198 0
-997 1242 1198 0
-997 -1242 -1198 0
998 1000 -931 0
998 -1000 931 0
-998 1000 931 0
-998 -1000 -931 0
-999 1201 0
-999 1292 0
999 -1292 -1201 0
1000 1292 -1201 0
1000 -1292 1201 0
-1000 1292 1201 0
-1000 -1292 -1201 0
1001 1003 -958 0
1001 -1003 958 0
-1001 1003 958 0
-1001 -1003 -958 0
-1002 1204 0
-1002 1293 0
1002 -1293 -1204 0
1003 1293 -1204 0
1003 -1293 1204 0
-1003 1293 1204 0
-1003 -1293 -1204 0
1004 1006 -961 0
1004 -1006 961 0
-1004 1006 961 0
-1004 -1006 -961 0
-1005 1207 0
-1005 1294 0
1005 -1294 -1207 0
1006 1294 -1207 0
1006 -1294 1207 0
-1006 1294 1207 0
-1006 -1294 -1207 0
1007 1009 -962 0
1007 -1009 962 0
-1007 1009 962 0
-1007 -1009 -962 0
-1008 1210 0
-1008 1297 0
1008 -1297 -1210 0
1009 1297 -1210 0
1009 -1297 1210 0
-1009 1297 1210 0
-1009 -1297 -1210 0
1010 1012 -934 0
1010 -1012 934 0
-1010 1012 934 0
-1010 -1012 -934 0
-1011 1213 0
-1011 1300 0
1011 -1300 -1213 0
1012 1300 -1213 0
1012 -1300 1213 0
-1012 1300 1213 0
-1012 -1300 -1213 0
1013 1015 -974 0
1013 -1015 974 0
-1013 1015 974 0
-1013 -1015 -974 0
-1014 1216 0
-1014 1303 0
1014 -1303 -1216 0
1015 1303 -1216 0
1015 -1303 1216 0
-1015 1303 1216 0
-1015 -1303 -1216 0
1016 1018 -977 0
1016 -1018 977 0
-1016 1018 977 0
-1016 -1018 -977 0
-1017 1219 0
-1017 1306 0
1017 -1306 -1219 0
1018 1306 -1219 0
1018 -1306 1219 0
-1018 1306 1219 0
-1018 -1306 -1219 0
1019 1021 -978 0
1019 -1021 978 0
-1019 1021 978 0
-1019 -1021 -978 0
-1020 1222 0
-1020 1309 0
1020 -1309 -1222 0
1021 1309 -1222 0
1021 -1309 1222 0
-1021 1309 1222 0
-1021 -1309 -1222 0
1022 1024 -982 0
1022 -1024 982 0
-1022 1024 982 0
-1022 -1024 -982 0
-1023 1225 0
-1023 1312 0
1023 -1312 -1225 0
1024 1312 -1225 0
1024 -1312 1225 0
-1024 1312 1225 0
-1024 -1312 -1225 0
1025 1027 -987 0
1025 -1027 987 0
-1025 1027 987 0
-1025 -1027 -987 0
-1026 1228 0
-1026 1315 0
1026 -1315 -1228 0
1027 1315 -1228 0
1027 -1315 1228 0
-1027 1315 1228 0
-1027 -1315 -1228 0
1028 1030 -990 0
1028 -1030 990 0
-1028 1030 990 0
-1028 -1030 -990 0
-1029 1232 0
-1029 1318 0
1029 -1318 -1232 0
1030 1318 -1232 0
1030 -1318 1232 0
-1030 1318 1232 0
-1030 -1318 -1232 0
1031 1034 -1033 0
1031 -1034 1033 0
-1031 1034 1033 0
-1031 -1034 -1033 0
-1032 1321 0
-1032 1655 0
1032 -1655 -1321 0
1033 1655 -1321 0
1033 -1655 1321 0
-1033 1655 1321 0
-1033 -1655 -1321 0
-1034 1324 0
-1034 2001 0
1034 -2001 -1324 0
1035 2001 -1324 0
1035 -2001 1324 0
-1035 2001 1324 0
-1035 -2001 -1324 0
1036 -1037 0
1036 -1038 0
1036 -1039 0
1036 -1045 0
1036 -1046 0
1036 -1047 0
-1036 1047 1046 1045 1039 1038 1037 0
-1037 1049 0
-1037 1060 0
1037 -1060 -1049 0
-1038 1042 0
-1038 1049 0
1038 -1049 -1042 0
-1039 1043 0
-1039 1049 0
1039 -1049 -1043 0
-1040 1081 0
-1040 1092 0
1040 -1092 -1081 0
1041 -1042 0
1041 -1043 0
1041 -1060 0
-1041 1060 1043 1042 0
-1042 1065 0
-1042 1076 0
1042 -1076 -1065 0
-1043 1040 0
-1043 1065 0
1043 -1065 -1040 0
1044 -1040 0
1044 -1076 0
-1044 1076 1040 0
-1045 1097 0
-1045 1377 0
1045 -1377 -1097 0
-1046 1053 0
-1046 1377 0
1046 -1377 -1053 0
-1047 1054 0
-1047 1377 0
1047 -1377 -1054 0
-1048 1101 0
-1048 1103 0
1048 -1103 -1101 0
-1049 1050 0
-1049 1377 0
1049 -1377 -1050 0
-1050 1051 0
-1050 1098 0
1050 -1098 -1051 0
-1051 1101 0
-1051 1104 0
1051 -1104 -1101 0
1052 -1053 0
1052 -1054 0
1052 -1057 0
1052 -1097 0
-1052 1097 1057 1054 1053 0
-1053 1098 0
-1053 1100 0
1053 -1100 -1098 0
-1054 1048 0
-1054 1098 0
1054 -1098 -1048 0
1055 -1048 0
1055 -1058 0
1055 -1100 0
-1055 1100 1058 1048 0
1056 -1059 0
1056 -1103 0
-1056 1103 1059 0
-1057 1041 0
-1057 1050 0
1057 -1050 -1041 0
-1058 1041 0
-1058 1051 0
1058 -1051 -1041 0
-1059 1041 0
-1059 1104 0
1059 -1104 -1041 0
1060 -1061 0
1060 -1062 0
1060 -1063 0
1060 -1106 0
-1060 1106 1063 1062 1061 0
-1061 1107 0
-1061 1109 0
1061 -1109 -1107 0
-1062 1069 0
-1062 1107 0
1062 -1107 -1069 0
-1063 1070 0
-1063 1107 0
1063 -1107 -1070 0
-1064 1113 0
-1064 1115 0
1064 -1115 -1113 0
-1065 1066 0
-1065 1107 0
1065 -1107 -1066 0
-1066 1067 0
-1066 1110 0
1066 -1110 -1067 0
-1067 1113 0
-1067 1116 0
1067 -1116 -1113 0
1068 -1069 0
1068 -1070 0
1068 -1073 0
1068 -1109 0
-1068 1109 1073 1070 1069 0
-1069 1110 0
-1069 1112 0
1069 -1112 -1110 0
-1070 1064 0
-1070 1110 0
1070 -1110 -1064 0
1071 -1064 0
1071 -1074 0
1071 -1112 0
-1071 1112 1074 1064 0
1072 -1075 0
1072 -1115 0
-1072 1115 1075 0
-1073 1044 0
-1073 1066 0
1073 -1066 -1044 0
-1074 1044 0
-1074 1067 0
1074 -1067 -1044 0
-1075 1044 0
-1075 1116 0
1075 -1116 -1044 0
1076 -1077 0
1076 -1078 0
1076 -1079 0
1076 -1118 0
-1076 1118 1079 1078 1077 0
-1077 1119 0
-1077 1121 0
1077 -1121 -1119 0
-1078 1085 0
-1078 1119 0
1078 -1119 -1085 0
-1079 1086 0
-1079 1119 0
1079 -1119 -1086 0
-1080 1125 0
-1080 1127 0
1080 -1127 -1125 0
-1081 1082 0
-1081 1119 0
1081 -1119 -1082 0
-1082 1083 0
-1082 1122 0
1082 -1122 -1083 0
-1083 1125 0
-1083 1128 0
1083 -1128 -1125 0
1084 -1085 0
1084 -1086 0
1084 -1089 0
1084 -1121 0
-1084 1121 1089 1086 1085 0
-1085 1122 0
-1085 1124 0
1085 -1124 -1122 0
-1086 1080 0
-1086 1122 0
1086 -1122 -1080 0
1087 -1080 0
1087 -1090 0
1087 -1124 0
-1087 1124 1090 1080 0
1088 -1091 0
1088 -1127 0
-1088 1127 1091 0
-1089 1082 0
-1089 1092 0
1089 -1092 -1082 0
-1090 1083 0
-1090 1092 0
1090 -1092 -1083 0
-1091 1092 0
-1091 1128 0
1091 -1128 -1092 0
1092 -1093 0
1092 -1130 0
-1092 1130 1093 0
-1093 1131 0
-1093 1132 0
1093 -1132 -1131 0
1094 1337 -1036 0
1094 -1337 1036 0
-1094 1337 1036 0
-1094 -1337 -1036 0
1095 1377 -1052 0
1095 -1377 1052 0
-1095 1377 1052 0
-1095 -1377 -1052 0
1096 1098 -1055 0
1096 -1098 1055 0
-1096 1098 1055 0
-1096 -1098 -1055 0
-1097 1378 0
-1097 1418 0
1097 -1418 -1378 0
1098 1418 -1378 0
1098 -1418 1378 0
-1098 1418 1378 0
-1098 -1418 -1378 0
1099 1101 -1056 0
1099 -1101 1056 0
-1099 1101 1056 0
-1099 -1101 -1056 0
-1100 1381 0
-1100 1458 0
1100 -1458 -1381 0
1101 1458 -1381 0
1101 -1458 1381 0
-1101 1458 1381 0
-1101 -1458 -1381 0
1102 1104 -1041 0
1102 -1104 1041 0
-1102 1104 1041 0
-1102 -1104 -1041 0
-1103 1384 0
-1103 1459 0
1103 -1459 -1384 0
1104 1459 -1384 0
1104 -1459 1384 0
-1104 1459 1384 0
-1104 -1459 -1384 0
1105 1107 -1068 0
1105 -1107 1068 0
-1105 1107 1068 0
-1105 -1107 -1068 0
-1106 1387 0
-1106 1462 0
1106 -1462 -1387 0
1107 1462 -1387 0
1107 -1462 1387 0
-1107 1462 1387 0
-1107 -1462 -1387 0
1108 1110 -1071 0
1108 -1110 1071 0
-1108 1110 1071 0
-1108 -1110 -1071 0
-1109 1390 0
-1109 1465 0
1109 -1465 -1390 0
1110 1465 -1390 0
1110 -1465 1390 0
-1110 1465 1390 0
-1110 -1465 -1390 0
1111 1113 -1072 0
1111 -1113 1072 0
-1111 1113 1072 0
-1111 -1113 -1072 0
-1112 1393 0
-1112 1468 0
1112 -1468 -1393 0
1113 1468 -1393 0
1113 -1468 1393 0
-1113 1468 1393 0
-1113 -1468 -1393 0
1114 1116 -1044 0
1114 -1116 1044 0
-1114 1116 1044 0
-1114 -1116 -1044 0
-1115 1396 0
-1115 1471 0
1115 -1471 -1396 0
1116 1471 -1396 0
1116 -1471 1396 0
-1116 1471 1396 0
-1116 -1471 -1396 0
1117 1119 -1084 0
1117 -1119 1084 0
-1117 1119 1084 0
-1117 -1119 -1084 0
-1118 1399 0
-1118 1474 0
1118 -1474 -1399 0
1119 1474 -1399 0
1119 -1474 1399 0
-1119 1474 1399 0
-1119 -1474 -1399 0
1120 1122 -1087 0
1120 -1122 1087 0
-1120 1122 1087 0
-1120 -1122 -1087 0
-1121 1402 0
-1121 1477 0
1121 -1477 -1402 0
1122 1477 -1402 0
1122 -1477 1402 0
-1122 1477 1402 0
-1122 -1477 -1402 0
1123 1125 -1088 0
1123 -1125 1088 0
-1123 1125 1088 0
-1123 -1125 -1088 0
-1124 1405 0
-1124 1480 0
1124 -1480 -1405 0
1125 1480 -1405 0
1125 -1480 1405 0
-1125 1480 1405 0
-1125 -1480 -1405 0
1126 1128 -1092 0
1126 -1128 1092 0
-1126 1128 1092 0
-1126 -1128 -1092 0
-1127 1408 0
-1127 1483 0
1127 -1483 -1408 0
1128 1483 -1408 0
1128 -1483 1408 0
-1128 1483 1408 0
-1128 -1483 -1408 0
1129 1132 -1131 0
1129 -1132 1131 0
-1129 1132 1131 0
-1129 -1132 -1131 0
-1130 1412 0
-1130 1486 0
1130 -1486 -1412 0
1131 1486 -1412 0
1131 -1486 1412 0
-1131 1486 1412 0
-1131 -1486 -1412 0
-1132 1489 0
-1132 1989 0
1132 -1989 -1489 0
1133 1989 -1489 0
1133 -1989 1489 0
-1133 1989 1489 0
-1133 -1989 -1489 0
1134 -1135 0
1134 -1136 0
1134 -1137 0
1134 -1144 0
1134 -1145 0
1134 -1146 0
-1134 1146 1145 1144 1137 1136 1135 0
-1135 1147 0
-1135 1159 0
1135 -1159 -1147 0
-1136 1140 0
-1136 1147 0
1136 -1147 -1140 0
-1137 1141 0
-1137 1147 0
1137 -1147 -1141 0
-1138 1180 0
-1138 1191 0
1138 -1191 -1180 0
1139 -1140 0
1139 -1141 0
1139 -1159 0
-1139 1159 1141 1140 0
-1140 1164 0
-1140 1175 0
1140 -1175 -1164 0
-1141 1138 0
-1141 1164 0
1141 -1164 -1138 0
1142 -1138 0
1142 -1175 0
-1142 1175 1138 0
-1143 1134 0
-1143 1499 0
1143 -1499 -1134 0
-1144 1196 0
-1144 1539 0
1144 -1539 -1196 0
-1145 1151 0
-1145 1539 0
1145 -1539 -1151 0
-1146 1152 0
-1146 1539 0
1146 -1539 -1152 0
-1147 1148 0
-1147 1539 0
1147 -1539 -1148 0
-1148 1149 0
-1148 1197 0
1148 -1197 -1149 0
-1149 1200 0
-1149 1203 0
1149 -1203 -1200 0
1150 -1151 0
1150 -1152 0
1150 -1156 0
1150 -1196 0
-1150 1196 1156 1152 1151 0
-1151 1197 0
-1151 1199 0
1151 -1199 -1197 0
-1152 1154 0
-1152 1197 0
1152 -1197 -1154 0
1153 -1154 0
1153 -1157 0
1153 -1199 0
-1153 1199 1157 1154 0
-1154 1200 0
-1154 1202 0
1154 -1202 -1200 0
1155 -1158 0
1155 -1202 0
-1155 1202 1158 0
-1156 1139 0
-1156 1148 0
1156 -1148 -1139 0
-1157 1139 0
-1157 1149 0
1157 -1149 -1139 0
-1158 1139 0
-1158 1203 0
1158 -1203 -1139 0
1159 -1160 0
1159 -1161 0
1159 -1162 0
1159 -1205 0
-1159 1205 1162 1161 1160 0
-1160 1206 0
-1160 1208 0
1160 -1208 -1206 0
-1161 1168 0
-1161 1206 0
1161 -1206 -1168 0
-1162 1169 0
-1162 1206 0
1162 -1206 -1169 0
-1163 1212 0
-1163 1214 0
1163 -1214 -1212 0
-1164 1165 0
-1164 1206 0
1164 -1206 -1165 0
-1165 1166 0
-1165 1209 0
1165 -1209 -1166 0
-1166 1212 0
-1166 1215 0
1166 -1215 -1212 0
1167 -1168 0
1167 -1169 0
1167 -1172 0
1167 -1208 0
-1167 1208 1172 1169 1168 0
-1168 1209 0
-1168 1211 0
1168 -1211 -1209 0
-1169 1163 0
-1169 1209 0
1169 -1209 -1163 0
1170 -1163 0
1170 -1173 0
1170 -1211 0
-1170 1211 1173 1163 0
1171 -1174 0
1171 -1214 0
-1171 1214 1174 0
-1172 1142 0
-1172 1165 0
1172 -1165 -1142 0
-1173 1142 0
-1173 1166 0
1173 -1166 -1142 0
-1174 1142 0
-1174 1215 0
1174 -1215 -1142 0
1175 -1176 0
1175 -1177 0
1175 -1178 0
1175 -1217 0
-1175 1217 1178 1177 1176 0
-1176 1218 0
-1176 1220 0
1176 -1220 -1218 0
-1177 1184 0
-1177 1218 0
1177 -1218 -1184 0
-1178 1185 0
-1178 1218 0
1178 -1218 -1185 0
-1179 1224 0
-1179 1226 0
1179 -1226 -1224 0
-1180 1181 0
-1180 1218 0
1180 -1218 -1181 0
-1181 1182 0
-1181 1221 0
1181 -1221 -1182 0
-1182 1224 0
-1182 1227 0
1182 -1227 -1224 0
1183 -1184 0
1183 -1185 0
1183 -1188 0
1183 -1220 0
-1183 1220 1188 1185 1184 0
-1184 1221 0
-1184 1223 0
1184 -1223 -1221 0
-1185 1179 0
-1185 1221 0
1185 -1221 -1179 0
1186 -1179 0
1186 -1189 0
1186 -1223 0
-1186 1223 1189 1179 0
1187 -1190 0
1187 -1226 0
-1187 1226 1190 0
-1188 1181 0
-1188 1191 0
1188 -1191 -1181 0
-1189 1182 0
-1189 1191 0
1189 -1191 -1182 0
-1190 1191 0
-1190 1227 0
1190 -1227 -1191 0
1191 -1192 0
1191 -1229 0
-1191 1229 1192 0
-1192 1230 0
-1192 1231 0
1192 -1231 -1230 0
1193 1499 -1134 0
1193 -1499 1134 0
-1193 1499 1134 0
-1193 -1499 -1134 0
1194 1539 -1150 0
1194 -1539 1150 0
-1194 1539 1150 0
-1194 -1539 -1150 0
1195 1197 -1153 0
1195 -1197 1153 0
-1195 1197 1153 0
-1195 -1197 -1153 0
-1196 1540 0
-1196 1580 0
1196 -1580 -1540 0
1197 1580 -1540 0
1197 -1580 1540 0
-1197 1580 1540 0
-1197 -1580 -1540 0
1198 1200 -1155 0
1198 -1200 1155 0
-1198 1200 1155 0
-1198 -1200 -1155 0
-1199 1543 0
-1199 1620 0
1199 -1620 -1543 0
1200 1620 -1543 0
1200 -1620 1543 0
-1200 1620 1543 0
-1200 -1620 -1543 0
1201 1203 -1139 0
1201 -1203 1139 0
-1201 1203 1139 0
-1201 -1203 -1139 0
-1202 1546 0
-1202 1621 0
1202 -1621 -1546 0
1203 1621 -1546 0
1203 -1621 1546 0
-1203 1621 1546 0
-1203 -1621 -1546 0
1204 1206 -1167 0
1204 -1206 1167 0
-1204 1206 1167 0
-1204 -1206 -1167 0
-1205 1549 0
-1205 1624 0
1205 -1624 -1549 0
1206 1624 -1549 0
1206 -1624 1549 0
-1206 1624 1549 0
-1206 -1624 -1549 0
1207 1209 -1170 0
1207 -1209 1170 0
-1207 1209 1170 0
-1207 -1209 -1170 0
-1208 1552 0
-1208 1627 0
1208 -1627 -1552 0
1209 1627 -1552 0
1209 -1627 1552 0
-1209 1627 1552 0
-1209 -1627 -1552 0
1210 1212 -1171 0
1210 -1212 1171 0
-1210 1212 1171 0
-1210 -1212 -1171 0
-1211 1555 0
-1211 1630 0
1211 -1630 -1555 0
1212 1630 -1555 0
1212 -1630 1555 0
-1212 1630 1555 0
-1212 -1630 -1555 0
1213 1215 -1142 0
1213 -1215 1142 0
-1213 1215 1142 0
-1213 -1215 -1142 0
-1214 1558 0
-1214 1633 0
1214 -1633 -1558 0
1215 1633 -1558 0
1215 -1633 1558 0
-1215 1633 1558 0
-1215 -1633 -1558 0
1216 1218 -1183 0
1216 -1218 1183 0
-1216 1218 1183 0
-1216 -1218 -1183 0
-1217 1561 0
-1217 1636 0
1217 -1636 -1561 0
1218 1636 -1561 0
1218 -1636 1561 0
-1218 1636 1561 0
-1218 -1636 -1561 0
1219 1221 -1186 0
1219 -1221 1186 0
-1219 1221 1186 0
-1219 -1221 -1186 0
-1220 1564 0
-1220 1639 0
1220 -1639 -1564 0
1221 1639 -1564 0
1221 -1639 1564 0
-1221 1639 1564 0
-1221 -1639 -1564 0
1222 1224 -1187 0
1222 -1224 1187 0
-1222 1224 1187 0
-1222 -1224 -1187 0
-1223 1567 0
-1223 1642 0
1223 -1642 -1567 0
1224 1642 -1567 0
1224 -1642 1567 0
-1224 1642 1567 0
-1224 -1642 -1567 0
1225 1227 -1191 0
1225 -1227 1191 0
-1225 1227 1191 0
-1225 -1227 -1191 0
-1226 1570 0
-1226 1645 0
1226 -1645 -1570 0
1227 1645 -1570 0
1227 -1645 1570 0
-1227 1645 1570 0
-1227 -1645 -1570 0
1228 1231 -1230 0
1228 -1231 1230 0
-1228 1231 1230 0
-1228 -1231 -1230 0
-1229 1574 0
-1229 1648 0
1229 -1648 -1574 0
1230 1648 -1574 0
1230 -1648 1574 0
-1230 1648 1574 0
-1230 -1648 -1574 0
-1231 1651 0
-1231 1997 0
1231 -1997 -1651 0
1232 1997 -1651 0
1232 -1997 1651 0
-1232 1997 1651 0
-1232 -1997 -1651 0
1233 -1234 0
1233 -1235 0
1233 -1236 0
1233 -1243 0
1233 -1244 0
1233 -1245 0
-1233 1245 1244 1243 1236 1235 1234 0
-1234 1247 0
-1234 1258 0
1234 -1258 -1247 0
-1235 1239 0
-1235 1247 0
1235 -1247 -1239 0
-1236 1240 0
-1236 1247 0
1236 -1247 -1240 0
-1237 1279 0
-1237 1290 0
1237 -1290 -1279 0
1238 -1239 0
1238 -1240 0
1238 -1258 0
-1238 1258 1240 1239 0
-1239 1263 0
-1239 1274 0
1239 -1274 -1263 0
-1240 1237 0
-1240 1263 0
1240 -1263 -1237 0
1241 -1237 0
1241 -1274 0
-1241 1274 1237 0
-1242 1233 0
-1242 1661 0
1242 -1661 -1233 0
-1243 1295 0
-1243 1701 0
1243 -1701 -1295 0
-1244 1251 0
-1244 1701 0
1244 -1701 -1251 0
-1245 1252 0
-1245 1701 0
1245 -1701 -1252 0
-1246 1299 0
-1246 1301 0
1246 -1301 -1299 0
-1247 1248 0
-1247 1701 0
1247 -1701 -1248 0
-1248 1249 0
-1248 1296 0
1248 -1296 -1249 0
-1249 1299 0
-1249 1302 0
1249 -1302 -1299 0
1250 -1251 0
1250 -1252 0
1250 -1255 0
1250 -1295 0
-1250 1295 1255 1252 1251 0
-1251 1296 0
-1251 1298 0
1251 -1298 -1296 0
-1252 1246 0
-1252 1296 0
1252 -1296 -1246 0
1253 -1246 0
1253 -1256 0
1253 -1298 0
-1253 1298 1256 1246 0
1254 -1257 0
1254 -1301 0
-1254 1301 1257 0
-1255 1238 0
-1255 1248 0
1255 -1248 -1238 0
-1256 1238 0
-1256 1249 0
1256 -1249 -1238 0
-1257 1238 0
-1257 1302 0
1257 -1302 -1238 0
1258 -1259 0
1258 -1260 0
1258 -1261 0
1258 -1304 0
-1258 1304 1261 1260 1259 0
-1259 1305 0
-1259 1307 0
1259 -1307 -1305 0
-1260 1267 0
-1260 1305 0
1260 -1305 -1267 0
-1261 1268 0
-1261 1305 0
1261 -1305 -1268 0
-1262 1311 0
-1262 1313 0
1262 -1313 -1311 0
-1263 1264 0
-1263 1305 0
1263 -1305 -1264 0
-1264 1265 0
-1264 1308 0
1264 -1308 -1265 0
-1265 1311 0
-1265 1314 0
1265 -1314 -1311 0
1266 -1267 0
1266 -1268 0
1266 -1271 0
1266 -1307 0
-1266 1307 1271 1268 1267 0
-1267 1308 0
-1267 1310 0
1267 -1310 -1308 0
-1268 1262 0
-1268 1308 0
1268 -1308 -1262 0
1269 -1262 0
1269 -1272 0
1269 -1310 0
-1269 1310 1272 1262 0
1270 -1273 0
1270 -1313 0
-1270 1313 1273 0
-1271 1241 0
-1271 1264 0
1271 -1264 -1241 0
-1272 1241 0
-1272 1265 0
1272 -1265 -1241 0
-1273 1241 0
-1273 1314 0
1273 -1314 -1241 0
1274 -1275 0
1274 -1276 0
1274 -1277 0
1274 -1316 0
-1274 1316 1277 1276 1275 0
-1275 1317 0
-1275 1319 0
1275 -1319 -1317 0
-1276 1283 0
-1276 1317 0
1276 -1317 -1283 0
-1277 1284 0
-1277 1317 0
1277 -1317 -1284 0
-1278 1323 0
-1278 1325 0
1278 -1325 -1323 0
-1279 1280 0
-1279 1317 0
1279 -1317 -1280 0
-1280 1281 0
-1280 1320 0
1280 -1320 -1281 0
-1281 1323 0
-1281 1326 0
1281 -1326 -1323 0
1282 -1283 0
1282 -1284 0
1282 -1287 0
1282 -1319 0
-1282 1319 1287 1284 1283 0
-1283 1320 0
-1283 1322 0
1283 -1322 -1320 0
-1284 1278 0
-1284 1320 0
1284 -1320 -1278 0
1285 -1278 0
1285 -1288 0
1285 -1322 0
-1285 1322 1288 1278 0
1286 -1289 0
1286 -1325 0
-1286 1325 1289 0
-1287 1280 0
-1287 1290 0
1287 -1290 -1280 0
-1288 1281 0
-1288 1290 0
1288 -1290 -1281 0
-1289 1290 0
-1289 1326 0
1289 -1326 -1290 0
1290 -1291 0
1290 -1328 0
-1290 1328 1291 0
-1291 1329 0
-1291 1330 0
1291 -1330 -1329 0
1292 1661 -1233 0
1292 -1661 1233 0
-1292 1661 1233 0
-1292 -1661 -1233 0
1293 1701 -1250 0
1293 -1701 1250 0
-1293 1701 1250 0
-1293 -1701 -1250 0
1294 1296 -1253 0
1294 -1296 1253 0
-1294 1296 1253 0
-1294 -1296 -1253 0
-1295 1702 0
-1295 1742 0
1295 -1742 -1702 0
1296 1742 -1702 0
1296 -1742 1702 0
-1296 1742 1702 0
-1296 -1742 -1702 0
1297 1299 -1254 0
1297 -1299 1254 0
-1297 1299 1254 0
-1297 -1299 -1254 0
-1298 1705 0
-1298 1782 0
1298 -1782 -1705 0
1299 1782 -1705 0
1299 -1782 1705 0
-1299 1782 1705 0
-1299 -1782 -1705 0
1300 1302 -1238 0
1300 -1302 1238 0
-1300 1302 1238 0
-1300 -1302 -1238 0
-1301 1708 0
-1301 1783 0
1301 -1783 -1708 0
1302 1783 -1708 0
1302 -1783 1708 0
-1302 1783 1708 0
-1302 -1783 -1708 0
1303 1305 -1266 0
1303 -1305 1266 0
-1303 1305 1266 0
-1303 -1305 -1266 0
-1304 1711 0
-1304 1786 0
1304 -1786 -1711 0
1305 1786 -1711 0
1305 -1786 1711 0
-1305 1786 1711 0
-1305 -1786 -1711 0
1306 1308 -1269 0
1306 -1308 1269 0
-1306 1308 1269 0
-1306 -1308 -1269 0
-1307 1714 0
-1307 1789 0
1307 -1789 -1714 0
1308 1789 -1714 0
1308 -1789 1714 0
-1308 1789 1714 0
-1308 -1789 -1714 0
1309 1311 -1270 0
1309 -1311 1270 0
-1309 1311 1270 0
-1309 -1311 -1270 0
-1310 1717 0
-1310 1792 0
1310 -1792 -1717 0
1311 1792 -1717 0
1311 -1792 1717 0
-1311 1792 1717 0
-1311 -1792 -1717 0
1312 1314 -1241 0
1312 -1314 1241 0
-1312 1314 1241 0
-1312 -1314 -1241 0
-1313 1720 0
-1313 1795 0
1313 -1795 -1720 0
1314 1795 -1720 0
1314 -1795 1720 0
-1314 1795 1720 0
-1314 -1795 -1720 0
1315 1317 -1282 0
1315 -1317 1282 0
-1315 1317 1282 0
-1315 -1317 -1282 0
-1316 1723 0
-1316 1798 0
1316 -1798 -1723 0
1317 1798 -1723 0
1317 -1798 1723 0
-1317 1798 1723 0
-1317 -1798 -1723 0
1318 1320 -1285 0
1318 -1320 1285 0
-1318 1320 1285 0
-1318 -1320 -1285 0
-1319 1726 0
-1319 1801 0
1319 -1801 -1726 0
1320 1801 -1726 0
1320 -1801 1726 0
-1320 1801 1726 0
-1320 -1801 -1726 0
1321 1323 -1286 0
1321 -1323 1286 0
-1321 1323 1286 0
-1321 -1323 -1286 0
-1322 1729 0
-1322 1804 0
1322 -1804 -1729 0
1323 1804 -1729 0
1323 -1804 1729 0
-1323 1804 1729 0
-1323 -1804 -1729 0
1324 1326 -1290 0
1324 -1326 1290 0
-1324 1326 1290 0
-1324 -1326 -1290 0
-1325 1732 0
-1325 1807 0
1325 -1807 -1732 0
1326 1807 -1732 0
1326 -1807 1732 0
-1326 1807 1732 0
-1326 -1807 -1732 0
1327 1330 -1329 0
1327 -1330 1329 0
-1327 1330 1329 0
-1327 -1330 -1329 0
-1328 1736 0
-1328 1810 0
1328 -1810 -1736 0
1329 1810 -1736 0
1329 -1810 1736 0
-1329 1810 1736 0
-1329 -1810 -1736 0
-1330 1813 0
-1330 2005 0
1330 -2005 -1813 0
1331 2005 -1813 0
1331 -2005 1813 0
-1331 2005 1813 0
-1331 -2005 -1813 0
-1332 1369 0
-1332 1395 0
1332 -1395 -1369 0
1333 -1334 0
1333 -1335 0
1333 -1342 0
1333 -1343 0
1333 -1344 0
1333 -1382 0
-1333 1382 1344 1343 1342 1335 1334 0
-1334 1346 0
-1334 1357 0
1334 -1357 -1346 0
-1335 1332 0
-1335 1346 0
1335 -1346 -1332 0
1336 -1332 0
1336 -1357 0
-1336 1357 1332 0
1337 -1338 0
1337 -1340 0
-1337 1340 1338 0
-1338 1379 0
-1338 1818 0
1338 -1818 -1379 0
1339 -1341 0
1339 -1379 0
-1339 1379 1341 0
-1340 1341 0
-1340 1818 0
1340 -1818 -1341 0
-1341 1333 0
-1341 1380 0
1341 -1380 -1333 0
-1342 1383 0
-1342 1385 0
1342 -1385 -1383 0
-1343 1350 0
-1343 1383 0
1343 -1383 -1350 0
-1344 1351 0
-1344 1383 0
1344 -1383 -1351 0
-1345 1389 0
-1345 1391 0
1345 -1391 -1389 0
-1346 1347 0
-1346 1383 0
1346 -1383 -1347 0
-1347 1348 0
-1347 1386 0
1347 -1386 -1348 0
-1348 1389 0
-1348 1392 0
1348 -1392 -1389 0
1349 -1350 0
1349 -1351 0
1349 -1354 0
1349 -1385 0
-1349 1385 1354 1351 1350 0
-1350 1386 0
-1350 1388 0
1350 -1388 -1386 0
-1351 1345 0
-1351 1386 0
1351 -1386 -1345 0
1352 -1345 0
1352 -1355 0
1352 -1388 0
-1352 1388 1355 1345 0
1353 -1356 0
1353 -1391 0
-1353 1391 1356 0
-1354 1336 0
-1354 1347 0
1354 -1347 -1336 0
-1355 1336 0
-1355 1348 0
1355 -1348 -1336 0
-1356 1336 0
-1356 1392 0
1356 -1392 -1336 0
1357 -1358 0
1357 -1359 0
1357 -1360 0
1357 -1394 0
-1357 1394 1360 1359 1358 0
-1358 1395 0
-1358 1397 0
1358 -1397 -1395 0
-1359 1365 0
-1359 1395 0
1359 -1395 -1365 0
-1360 1366 0
-1360 1395 0
1360 -1395 -1366 0
-1361 1401 0
-1361 1403 0
1361 -1403 -1401 0
-1362 1363 0
-1362 1398 0
1362 -1398 -1363 0
-1363 1401 0
-1363 1404 0
1363 -1404 -1401 0
1364 -1365 0
1364 -1366 0
1364 -1369 0
1364 -1397 0
-1364 1397 1369 1366 1365 0
-1365 1398 0
-1365 1400 0
1365 -1400 -1398 0
-1366 1361 0
-1366 1398 0
1366 -1398 -1361 0
1367 -1361 0
1367 -1370 0
1367 -1400 0
-1367 1400 1370 1361 0
1368 -1371 0
1368 -1403 0
-1368 1403 1371 0
-1369 1362 0
-1369 1372 0
1369 -1372 -1362 0
-1370 1363 0
-1370 1372 0
1370 -1372 -1363 0
-1371 1372 0
-1371 1404 0
1371 -1404 -1372 0
1372 -1373 0
1372 -1374 0
1372 -1406 0
-1372 1406 1374 1373 0
-1373 1407 0
-1373 1409 0
1373 -1409 -1407 0
-1374 1376 0
-1374 1407 0
1374 -1407 -1376 0
1375 -1376 0
1375 -1409 0
-1375 1409 1376 0
-1376 1410 0
-1376 1411 0
1376 -1411 -1410 0
1377 1818 -1339 0
1377 -1818 1339 0
-1377 1818 1339 0
-1377 -1818 -1339 0
1378 1380 -1333 0
1378 -1380 1333 0
-1378 1380 1333 0
-1378 -1380 -1333 0
-1379 1819 0
-1379 1832 0
1379 -1832 -1819 0
1380 1832 -1819 0
1380 -1832 1819 0
-1380 1832 1819 0
-1380 -1832 -1819 0
1381 1383 -1349 0
1381 -1383 1349 0
-1381 1383 1349 0
-1381 -1383 -1349 0
-1382 1833 0
-1382 1846 0
1382 -1846 -1833 0
1383 1846 -1833 0
1383 -1846 1833 0
-1383 1846 1833 0
-1383 -1846 -1833 0
1384 1386 -1352 0
1384 -1386 1352 0
-1384 1386 1352 0
-1384 -1386 -1352 0
-1385 1847 0
-1385 1860 0
1385 -1860 -1847 0
1386 1860 -1847 0
1386 -1860 1847 0
-1386 1860 1847 0
-1386 -1860 -1847 0
1387 1389 -1353 0
1387 -1389 1353 0
-1387 1389 1353 0
-1387 -1389 -1353 0
-1388 1861 0
-1388 1874 0
1388 -1874 -1861 0
1389 1874 -1861 0
1389 -1874 1861 0
-1389 1874 1861 0
-1389 -1874 -1861 0
1390 1392 -1336 0
1390 -1392 1336 0
-1390 1392 1336 0
-1390 -1392 -1336 0
-1391 1875 0
-1391 1888 0
1391 -1888 -1875 0
1392 1888 -1875 0
1392 -1888 1875 0
-1392 1888 1875 0
-1392 -1888 -1875 0
1393 1395 -1364 0
1393 -1395 1364 0
-1393 1395 1364 0
-1393 -1395 -1364 0
-1394 1889 0
-1394 1902 0
1394 -1902 -1889 0
1395 1902 -1889 0
1395 -1902 1889 0
-1395 1902 1889 0
-1395 -1902 -1889 0
1396 1398 -1367 0
1396 -1398 1367 0
-1396 1398 1367 0
-1396 -1398 -1367 0
-1397 1903 0
-1397 1916 0
1397 -1916 -1903 0
1398 1916 -1903 0
1398 -1916 1903 0
-1398 1916 1903 0
-1398 -1916 -1903 0
1399 1401 -1368 0
1399 -1401 1368 0
-1399 1401 1368 0
-1399 -1401 -1368 0
-1400 1917 0
-1400 1930 0
1400 -1930 -1917 0
1401 1930 -1917 0
1401 -1930 1917 0
-1401 1930 1917 0
-1401 -1930 -1917 0
1402 1404 -1372 0
1402 -1404 1372 0
-1402 1404 1372 0
-1402 -1404 -1372 0
-1403 1931 0
-1403 1944 0
1403 -1944 -1931 0
1404 1944 -1931 0
1404 -1944 1931 0
-1404 1944 1931 0
-1404 -1944 -1931 0
1405 1407 -1375 0
1405 -1407 1375 0
-1405 1407 1375 0
-1405 -1407 -1375 0
-1406 1945 0
-1406 1958 0
1406 -1958 -1945 0
1407 1958 -1945 0
1407 -1958 1945 0
-1407 1958 1945 0
-1407 -1958 -1945 0
1408 1411 -1410 0
1408 -1411 1410 0
-1408 1411 1410 0
-1408 -1411 -1410 0
-1409 1959 0
-1409 1972 0
1409 -1972 -1959 0
1410 1972 -1959 0
1410 -1972 1959 0
-1410 1972 1959 0
-1410 -1972 -1959 0
-1411 1973 0
-1411 1987 0
1411 -1987 -1973 0
1412 1987 -1973 0
1412 -1987 1973 0
-1412 1987 1973 0
-1412 -1987 -1973 0
-1413 1476 0
-1413 1450 0
1413 -1450 -1476 0
1414 -1415 0
1414 -1416 0
1414 -1423 0
1414 -1424 0
1414 -1425 0
1414 -1463 0
-1414 1463 1425 1424 1423 1416 1415 0
-1415 1427 0
-1415 1438 0
1415 -1438 -1427 0
-1416 1413 0
-1416 1427 0
1416 -1427 -1413 0
1417 -1413 0
1417 -1438 0
-1417 1438 1413 0
1418 -1419 0
1418 -1421 0
-1418 1421 1419 0
-1419 1460 0
-1419 1820 0
1419 -1820 -1460 0
1420 -1422 0
1420 -1460 0
-1420 1460 1422 0
-1421 1422 0
-1421 1820 0
1421 -1820 -1422 0
-1422 1414 0
-1422 1461 0
1422 -1461 -1414 0
-1423 1464 0
-1423 1466 0
1423 -1466 -1464 0
-1424 1431 0
-1424 1464 0
1424 -1464 -1431 0
-1425 1432 0
-1425 1464 0
1425 -1464 -1432 0
-1426 1470 0
-1426 1472 0
1426 -1472 -1470 0
-1427 1428 0
-1427 1464 0
1427 -1464 -1428 0
-1428 1429 0
-1428 1467 0
1428 -1467 -1429 0
-1429 1470 0
-1429 1473 0
1429 -1473 -1470 0
1430 -1431 0
1430 -1432 0
1430 -1435 0
1430 -1466 0
-1430 1466 1435 1432 1431 0
-1431 1467 0
-1431 1469 0
1431 -1469 -1467 0
-1432 1426 0
-1432 1467 0
1432 -1467 -1426 0
1433 -1426 0
1433 -1436 0
1433 -1469 0
-1433 1469 1436 1426 0
1434 -1437 0
1434 -1472 0
-1434 1472 1437 0
-1435 1417 0
-1435 1428 0
1435 -1428 -1417 0
-1436 1417 0
-1436 1429 0
1436 -1429 -1417 0
-1437 1417 0
-1437 1473 0
1437 -1473 -1417 0
1438 -1439 0
1438 -1440 0
1438 -1441 0
1438 -1475 0
-1438 1475 1441 1440 1439 0
-1439 1476 0
-1439 1478 0
1439 -1478 -1476 0
-1440 1446 0
-1440 1476 0
1440 -1476 -1446 0
-1441 1447 0
-1441 1476 0
1441 -1476 -1447 0
-1442 1482 0
-1442 1484 0
1442 -1484 -1482 0
-1443 1444 0
-1443 1479 0
1443 -1479 -1444 0
-1444 1482 0
-1444 1485 0
1444 -1485 -1482 0
1445 -1446 0
1445 -1447 0
1445 -1478 0
1445 -1450 0
-1445 1450 1478 1447 1446 0
-1446 1479 0
-1446 1481 0
1446 -1481 -1479 0
-1447 1442 0
-1447 1479 0
1447 -1479 -1442 0
1448 -1442 0
1448 -1481 0
1448 -1451 0
-1448 1451 1481 1442 0
1449 -1484 0
1449 -1452 0
-1449 1452 1484 0
-1450 1443 0
-1450 1453 0
1450 -1453 -1443 0
-1451 1444 0
-1451 1453 0
1451 -1453 -1444 0
-1452 1485 0
-1452 1453 0
1452 -1453 -1485 0
1453 -1487 0
1453 -1454 0
1453 -1455 0
-1453 1455 1454 1487 0
-1454 1488 0
-1454 1490 0
1454 -1490 -1488 0
-1455 1457 0
-1455 1488 0
1455 -1488 -1457 0
1456 -1457 0
1456 -1490 0
-1456 1490 1457 0
-1457 1491 0
-1457 1492 0
1457 -1492 -1491 0
1458 1820 -1420 0
1458 -1820 1420 0
-1458 1820 1420 0
-1458 -1820 -1420 0
1459 1461 -1414 0
1459 -1461 1414 0
-1459 1461 1414 0
-1459 -1461 -1414 0
-1460 1821 0
-1460 1834 0
1460 -1834 -1821 0
1461 1834 -1821 0
1461 -1834 1821 0
-1461 1834 1821 0
-1461 -1834 -1821 0
1462 1464 -1430 0
1462 -1464 1430 0
-1462 1464 1430 0
-1462 -1464 -1430 0
-1463 1835 0
-1463 1848 0
1463 -1848 -1835 0
1464 1848 -1835 0
1464 -1848 1835 0
-1464 1848 1835 0
-1464 -1848 -1835 0
1465 1467 -1433 0
1465 -1467 1433 0
-1465 1467 1433 0
-1465 -1467 -1433 0
-1466 1849 0
-1466 1862 0
1466 -1862 -1849 0
1467 1862 -1849 0
1467 -1862 1849 0
-1467 1862 1849 0
-1467 -1862 -1849 0
1468 1470 -1434 0
1468 -1470 1434 0
-1468 1470 1434 0
-1468 -1470 -1434 0
-1469 1863 0
-1469 1876 0
1469 -1876 -1863 0
1470 1876 -1863 0
1470 -1876 1863 0
-1470 1876 1863 0
-1470 -1876 -1863 0
1471 1473 -1417 0
1471 -1473 1417 0
-1471 1473 1417 0
-1471 -1473 -1417 0
-1472 1877 0
-1472 1890 0
1472 -1890 -1877 0
1473 1890 -1877 0
1473 -1890 1877 0
-1473 1890 1877 0
-1473 -1890 -1877 0
1474 1476 -1445 0
1474 -1476 1445 0
-1474 1476 1445 0
-1474 -1476 -1445 0
-1475 1891 0
-1475 1904 0
1475 -1904 -1891 0
1476 1904 -1891 0
1476 -1904 1891 0
-1476 1904 1891 0
-1476 -1904 -1891 0
1477 1479 -1448 0
1477 -1479 1448 0
-1477 1479 1448 0
-1477 -1479 -1448 0
-1478 1905 0
-1478 1918 0
1478 -1918 -1905 0
1479 1918 -1905 0
1479 -1918 1905 0
-1479 1918 1905 0
-1479 -1918 -1905 0
1480 1482 -1449 0
1480 -1482 1449 0
-1480 1482 1449 0
-1480 -1482 -1449 0
-1481 1919 0
-1481 1932 0
1481 -1932 -1919 0
1482 1932 -1919 0
1482 -1932 1919 0
-1482 1932 1919 0
-1482 -1932 -1919 0
1483 1453 -1485 0
1483 -1453 1485 0
-1483 1453 1485 0
-1483 -1453 -1485 0
-1484 1933 0
-1484 1946 0
1484 -1946 -1933 0
1485 1946 -1933 0
1485 -1946 1933 0
-1485 1946 1933 0
-1485 -1946 -1933 0
1486 1456 -1488 0
1486 -1456 1488 0
-1486 1456 1488 0
-1486 -1456 -1488 0
-1487 1947 0
-1487 1960 0
1487 -1960 -1947 0
1488 1960 -1947 0
1488 -1960 1947 0
-1488 1960 1947 0
-1488 -1960 -1947 0
1489 1492 -1491 0
1489 -1492 1491 0
-1489 1492 1491 0
-1489 -1492 -1491 0
-1490 1961 0
-1490 1974 0
1490 -1974 -1961 0
1491 1974 -1961 0
1491 -1974 1961 0
-1491 1974 1961 0
-1491 -1974 -1961 0
-1492 1975 0
-1492 1991 0
1492 -1991 -1975 0
1493 1991 -1975 0
1493 -1991 1975 0
-1493 1991 1975 0
-1493 -1991 -1975 0
1494 -1495 0
1494 -1496 0
1494 -1504 0
1494 -1505 0
1494 -1506 0
1494 -1544 0
-1494 1544 1506 1505 1504 1496 1495 0
-1495 1507 0
-1495 1519 0
1495 -1519 -1507 0
-1496 1498 0
-1496 1507 0
1496 -1507 -1498 0
1497 -1498 0
1497 -1519 0
-1497 1519 1498 0
-1498 1531 0
-1498 1557 0
1498 -1557 -1531 0
1499 -1500 0
1499 -1502 0
-1499 1502 1500 0
-1500 1541 0
-1500 1822 0
1500 -1822 -1541 0
1501 -1503 0
1501 -1541 0
-1501 1541 1503 0
-1502 1503 0
-1502 1822 0
1502 -1822 -1503 0
-1503 1494 0
-1503 1542 0
1503 -1542 -1494 0
-1504 1545 0
-1504 1547 0
1504 -1547 -1545 0
-1505 1511 0
-1505 1545 0
1505 -1545 -1511 0
-1506 1512 0
-1506 1545 0
1506 -1545 -1512 0
-1507 1508 0
-1507 1545 0
1507 -1545 -1508 0
-1508 1509 0
-1508 1548 0
1508 -1548 -1509 0
-1509 1551 0
-1509 1554 0
1509 -1554 -1551 0
1510 -1511 0
1510 -1512 0
1510 -1516 0
1510 -1547 0
-1510 1547 1516 1512 1511 0
-1511 1548 0
-1511 1550 0
1511 -1550 -1548 0
-1512 1514 0
-1512 1548 0
1512 -1548 -1514 0
1513 -1514 0
1513 -1517 0
1513 -1550 0
-1513 1550 1517 1514 0
-1514 1551 0
-1514 1553 0
1514 -1553 -1551 0
1515 -1518 0
1515 -1553 0
-1515 1553 1518 0
-1516 1497 0
-1516 1508 0
1516 -1508 -1497 0
-1517 1497 0
-1517 1509 0
1517 -1509 -1497 0
-1518 1497 0
-1518 1554 0
1518 -1554 -1497 0
1519 -1520 0
1519 -1521 0
1519 -1522 0
1519 -1556 0
-1519 1556 1522 1521 1520 0
-1520 1557 0
-1520 1559 0
1520 -1559 -1557 0
-1521 1527 0
-1521 1557 0
1521 -1557 -1527 0
-1522 1528 0
-1522 1557 0
1522 -1557 -1528 0
-1523 1563 0
-1523 1565 0
1523 -1565 -1563 0
-1524 1525 0
-1524 1560 0
1524 -1560 -1525 0
-1525 1563 0
-1525 1566 0
1525 -1566 -1563 0
1526 -1527 0
1526 -1528 0
1526 -1531 0
1526 -1559 0
-1526 1559 1531 1528 1527 0
-1527 1560 0
-1527 1562 0
1527 -1562 -1560 0
-1528 1523 0
-1528 1560 0
1528 -1560 -1523 0
1529 -1523 0
1529 -1532 0
1529 -1562 0
-1529 1562 1532 1523 0
1530 -1533 0
1530 -1565 0
-1530 1565 1533 0
-1531 1524 0
-1531 1534 0
1531 -1534 -1524 0
-1532 1525 0
-1532 1534 0
1532 -1534 -1525 0
-1533 1534 0
-1533 1566 0
1533 -1566 -1534 0
1534 -1535 0
1534 -1536 0
1534 -1568 0
-1534 1568 1536 1535 0
-1535 1569 0
-1535 1571 0
1535 -1571 -1569 0
-1536 1538 0
-1536 1569 0
1536 -1569 -1538 0
1537 -1538 0
1537 -1571 0
-1537 1571 1538 0
-1538 1572 0
-1538 1573 0
1538 -1573 -1572 0
1539 1822 -1501 0
1539 -1822 1501 0
-1539 1822 1501 0
-1539 -1822 -1501 0
1540 1542 -1494 0
1540 -1542 1494 0
-1540 1542 1494 0
-1540 -1542 -1494 0
-1541 1823 0
-1541 1836 0
1541 -1836 -1823 0
1542 1836 -1823 0
1542 -1836 1823 0
-1542 1836 1823 0
-1542 -1836 -1823 0
1543 1545 -1510 0
1543 -1545 1510 0
-1543 1545 1510 0
-1543 -1545 -1510 0
-1544 1837 0
-1544 1850 0
1544 -1850 -1837 0
1545 1850 -1837 0
1545 -1850 1837 0
-1545 1850 1837 0
-1545 -1850 -1837 0
1546 1548 -1513 0
1546 -1548 1513 0
-1546 1548 1513 0
-1546 -1548 -1513 0
-1547 1851 0
-1547 1864 0
1547 -1864 -1851 0
1548 1864 -1851 0
1548 -1864 1851 0
-1548 1864 1851 0
-1548 -1864 -1851 0
1549 1551 -1515 0
1549 -1551 1515 0
-1549 1551 1515 0
-1549 -1551 -1515 0
-1550 1865 0
-1550 1878 0
1550 -1878 -1865 0
1551 1878 -1865 0
1551 -1878 1865 0
-1551 1878 1865 0
-1551 -1878 -1865 0
1552 1554 -1497 0
1552 -1554 1497 0
-1552 1554 1497 0
-1552 -1554 -1497 0
-1553 1879 0
-1553 1892 0
1553 -1892 -1879 0
1554 1892 -1879 0
1554 -1892 1879 0
-1554 1892 1879 0
-1554 -1892 -1879 0
1555 1557 -1526 0
1555 -1557 1526 0
-1555 1557 1526 0
-1555 -1557 -1526 0
-1556 1893 0
-1556 1906 0
1556 -1906 -1893 0
1557 1906 -1893 0
1557 -1906 1893 0
-1557 1906 1893 0
-1557 -1906 -1893 0
1558 1560 -1529 0
1558 -1560 1529 0
-1558 1560 1529 0
-1558 -1560 -1529 0
-1559 1907 0
-1559 1920 0
1559 -1920 -1907 0
1560 1920 -1907 0
1560 -1920 1907 0
-1560 1920 1907 0
-1560 -1920 -1907 0
1561 1563 -1530 0
1561 -1563 1530 0
-1561 1563 1530 0
-1561 -1563 -1530 0
-1562 1921 0
-1562 1934 0
1562 -1934 -1921 0
1563 1934 -1921 0
1563 -1934 1921 0
-1563 1934 1921 0
-1563 -1934 -1921 0
1564 1566 -1534 0
1564 -1566 1534 0
-1564 1566 1534 0
-1564 -1566 -1534 0
-1565 1935 0
-1565 1948 0
1565 -1948 -1935 0
1566 1948 -1935 0
1566 -1948 1935 0
-1566 1948 1935 0
-1566 -1948 -1935 0
1567 1569 -1537 0
1567 -1569 1537 0
-1567 1569 1537 0
-1567 -1569 -1537 0
-1568 1949 0
-1568 1962 0
1568 -1962 -1949 0
1569 1962 -1949 0
1569 -1962 1949 0
-1569 1962 1949 0
-1569 -1962 -1949 0
1570 1573 -1572 0
1570 -1573 1572 0
-1570 1573 1572 0
-1570 -1573 -1572 0
-1571 1963 0
-1571 1976 0
1571 -1976 -1963 0
1572 1976 -1963 0
1572 -1976 1963 0
-1572 1976 1963 0
-1572 -1976 -1963 0
-1573 1977 0
-1573 1995 0
1573 -1995 -1977 0
1574 1995 -1977 0
1574 -1995 1977 0
-1574 1995 1977 0
-1574 -1995 -1977 0
-1575 1612 0
-1575 1638 0
1575 -1638 -1612 0
1576 -1577 0
1576 -1578 0
1576 -1585 0
1576 -1586 0
1576 -1587 0
1576 -1625 0
-1576 1625 1587 1586 1585 1578 1577 0
-1577 1589 0
-1577 1600 0
1577 -1600 -1589 0
-1578 1575 0
-1578 1589 0
1578 -1589 -1575 0
1579 -1575 0
1579 -1600 0
-1579 1600 1575 0
1580 -1581 0
1580 -1583 0
-1580 1583 1581 0
-1581 1622 0
-1581 1824 0
1581 -1824 -1622 0
1582 -1584 0
1582 -1622 0
-1582 1622 1584 0
-1583 1584 0
-1583 1824 0
1583 -1824 -1584 0
-1584 1576 0
-1584 1623 0
1584 -1623 -1576 0
-1585 1626 0
-1585 1628 0
1585 -1628 -1626 0
-1586 1593 0
-1586 1626 0
1586 -1626 -1593 0
-1587 1594 0
-1587 1626 0
1587 -1626 -1594 0
-1588 1632 0
-1588 1634 0
1588 -1634 -1632 0
-1589 1590 0
-1589 1626 0
1589 -1626 -1590 0
-1590 1591 0
-1590 1629 0
1590 -1629 -1591 0
-1591 1632 0
-1591 1635 0
1591 -1635 -1632 0
1592 -1593 0
1592 -1594 0
1592 -1597 0
1592 -1628 0
-1592 1628 1597 1594 1593 0
-1593 1629 0
-1593 1631 0
1593 -1631 -1629 0
-1594 1588 0
-1594 1629 0
1594 -1629 -1588 0
1595 -1588 0
1595 -1598 0
1595 -1631 0
-1595 1631 1598 1588 0
1596 -1599 0
1596 -1634 0
-1596 1634 1599 0
-1597 1579 0
-1597 1590 0
1597 -1590 -1579 0
-1598 1579 0
-1598 1591 0
1598 -1591 -1579 0
-1599 1579 0
-1599 1635 0
1599 -1635 -1579 0
1600 -1601 0
1600 -1602 0
1600 -1603 0
1600 -1637 0
-1600 1637 1603 1602 1601 0
-1601 1638 0
-1601 1640 0
1601 -1640 -1638 0
-1602 1608 0
-1602 1638 0
1602 -1638 -1608 0
-1603 1609 0
-1603 1638 0
1603 -1638 -1609 0
-1604 1644 0
-1604 1646 0
1604 -1646 -1644 0
-1605 1606 0
-1605 1641 0
1605 -1641 -1606 0
-1606 1644 0
-1606 1647 0
1606 -1647 -1644 0
1607 -1608 0
1607 -1609 0
1607 -1612 0
1607 -1640 0
-1607 1640 1612 1609 1608 0
-1608 1641 0
-1608 1643 0
1608 -1643 -1641 0
-1609 1604 0
-1609 1641 0
1609 -1641 -1604 0
1610 -1604 0
1610 -1613 0
1610 -1643 0
-1610 1643 1613 1604 0
1611 -1614 0
1611 -1646 0
-1611 1646 1614 0
-1612 1605 0
-1612 1615 0
1612 -1615 -1605 0
-1613 1606 0
-1613 1615 0
1613 -1615 -1606 0
-1614 1615 0
-1614 1647 0
1614 -1647 -1615 0
1615 -1616 0
1615 -1617 0
1615 -1649 0
-1615 1649 1617 1616 0
-1616 1650 0
-1616 1652 0
1616 -1652 -1650 0
-1617 1619 0
-1617 1650 0
1617 -1650 -1619 0
1618 -1619 0
1618 -1652 0
-1618 1652 1619 0
-1619 1653 0
-1619 1654 0
1619 -1654 -1653 0
1620 1824 -1582 0
1620 -1824 1582 0
-1620 1824 1582 0
-1620 -1824 -1582 0
1621 1623 -1576 0
1621 -1623 1576 0
-1621 1623 1576 0
-1621 -1623 -1576 0
-1622 1825 0
-1622 1838 0
1622 -1838 -1825 0
1623 1838 -1825 0
1623 -1838 1825 0
-1623 1838 1825 0
-1623 -1838 -1825 0
1624 1626 -1592 0
1624 -1626 1592 0
-1624 1626 1592 0
-1624 -1626 -1592 0
-1625 1839 0
-1625 1852 0
1625 -1852 -1839 0
1626 1852 -1839 0
1626 -1852 1839 0
-1626 1852 1839 0
-1626 -1852 -1839 0
1627 1629 -1595 0
1627 -1629 1595 0
-1627 1629 1595 0
-1627 -1629 -1595 0
-1628 1853 0
-1628 1866 0
1628 -1866 -1853 0
1629 1866 -1853 0
1629 -1866 1853 0
-1629 1866 1853 0
-1629 -1866 -1853 0
1630 1632 -1596 0
1630 -1632 1596 0
-1630 1632 1596 0
-1630 -1632 -1596 0
-1631 1867 0
-1631 1880 0
1631 -1880 -1867 0
1632 1880 -1867 0
1632 -1880 1867 0
-1632 1880 1867 0
-1632 -1880 -1867 0
1633 1635 -1579 0
1633 -1635 1579 0
-1633 1635 1579 0
-1633 -1635 -1579 0
-1634 1881 0
-1634 1894 0
1634 -1894 -1881 0
1635 1894 -1881 0
1635 -1894 1881 0
-1635 1894 1881 0
-1635 -1894 -1881 0
1636 1638 -1607 0
1636 -1638 1607 0
-1636 1638 1607 0
-1636 -1638 -1607 0
-1637 1895 0
-1637 1908 0
1637 -1908 -1895 0
1638 1908 -1895 0
1638 -1908 1895 0
-1638 1908 1895 0
-1638 -1908 -1895 0
1639 1641 -1610 0
1639 -1641 1610 0
-1639 1641 1610 0
-1639 -1641 -1610 0
-1640 1909 0
-1640 1922 0
1640 -1922 -1909 0
1641 1922 -1909 0
1641 -1922 1909 0
-1641 1922 1909 0
-1641 -1922 -1909 0
1642 1644 -1611 0
1642 -1644 1611 0
-1642 1644 1611 0
-1642 -1644 -1611 0
-1643 1923 0
-1643 1936 0
1643 -1936 -1923 0
1644 1936 -1923 0
1644 -1936 1923 0
-1644 1936 1923 0
-1644 -1936 -1923 0
1645 1647 -1615 0
1645 -1647 1615 0
-1645 1647 1615 0
-1645 -1647 -1615 0
-1646 1937 0
-1646 1950 0
1646 -1950 -1937 0
1647 1950 -1937 0
1647 -1950 1937 0
-1647 1950 1937 0
-1647 -1950 -1937 0
1648 1650 -1618 0
1648 -1650 1618 0
-1648 1650 1618 0
-1648 -1650 -1618 0
-1649 1951 0
-1649 1964 0
1649 -1964 -1951 0
1650 1964 -1951 0
1650 -1964 1951 0
-1650 1964 1951 0
-1650 -1964 -1951 0
1651 1654 -1653 0
1651 -1654 1653 0
-1651 1654 1653 0
-1651 -1654 -1653 0
-1652 1965 0
-1652 1978 0
1652 -1978 -1965 0
1653 1978 -1965 0
1653 -1978 1965 0
-1653 1978 1965 0
-1653 -1978 -1965 0
-1654 1979 0
-1654 1999 0
1654 -1999 -1979 0
1655 1999 -1979 0
1655 -1999 1979 0
-1655 1999 1979 0
-1655 -1999 -1979 0
-1656 1693 0
-1656 1719 0
1656 -1719 -1693 0
1657 -1658 0
1657 -1659 0
1657 -1666 0
1657 -1667 0
1657 -1668 0
1657 -1706 0
-1657 1706 1668 1667 1666 1659 1658 0
-1658 1670 0
-1658 1681 0
1658 -1681 -1670 0
-1659 1656 0
-1659 1670 0
1659 -1670 -1656 0
1660 -1656 0
1660 -1681 0
-1660 1681 1656 0
1661 -1662 0
1661 -1664 0
-1661 1664 1662 0
-1662 1703 0
-1662 1826 0
1662 -1826 -1703 0
1663 -1665 0
1663 -1703 0
-1663 1703 1665 0
-1664 1665 0
-1664 1826 0
1664 -1826 -1665 0
-1665 1657 0
-1665 1704 0
1665 -1704 -1657 0
-1666 1707 0
-1666 1709 0
1666 -1709 -1707 0
-1667 1674 0
-1667 1707 0
1667 -1707 -1674 0
-1668 1675 0
-1668 1707 0
1668 -1707 -1675 0
-1669 1713 0
-1669 1715 0
1669 -1715 -1713 0
-1670 1671 0
-1670 1707 0
1670 -1707 -1671 0
-1671 1672 0
-1671 1710 0
1671 -1710 -1672 0
-1672 1713 0
-1672 1716 0
1672 -1716 -1713 0
1673 -1674 0
1673 -1675 0
1673 -1678 0
1673 -1709 0
-1673 1709 1678 1675 1674 0
-1674 1710 0
-1674 1712 0
1674 -1712 -1710 0
-1675 1669 0
-1675 1710 0
1675 -1710 -1669 0
1676 -1669 0
1676 -1679 0
1676 -1712 0
-1676 1712 1679 1669 0
1677 -1680 0
1677 -1715 0
-1677 1715 1680 0
-1678 1660 0
-1678 1671 0
1678 -1671 -1660 0
-1679 1660 0
-1679 1672 0
1679 -1672 -1660 0
-1680 1660 0
-1680 1716 0
1680 -1716 -1660 0
1681 -1682 0
1681 -1683 0
1681 -1684 0
1681 -1718 0
-1681 1718 1684 1683 1682 0
-1682 1719 0
-1682 1721 0
1682 -1721 -1719 0
-1683 1689 0
-1683 1719 0
1683 -1719 -1689 0
-1684 1690 0
-1684 1719 0
1684 -1719 -1690 0
-1685 1725 0
-1685 1727 0
1685 -1727 -1725 0
-1686 1687 0
-1686 1722 0
1686 -1722 -1687 0
-1687 1725 0
-1687 1728 0
1687 -1728 -1725 0
1688 -1689 0
1688 -1690 0
1688 -1693 0
1688 -1721 0
-1688 1721 1693 1690 1689 0
-1689 1722 0
-1689 1724 0
1689 -1724 -1722 0
-1690 1685 0
-1690 1722 0
1690 -1722 -1685 0
1691 -1685 0
1691 -1694 0
1691 -1724 0
-1691 1724 1694 1685 0
1692 -1695 0
1692 -1727 0
-1692 1727 1695 0
-1693 1686 0
-1693 1696 0
1693 -1696 -1686 0
-1694 1687 0
-1694 1696 0
1694 -1696 -1687 0
-1695 1696 0
-1695 1728 0
1695 -1728 -1696 0
1696 -1697 0
1696 -1698 0
1696 -1730 0
-1696 1730 1698 1697 0
-1697 1731 0
-1697 1733 0
1697 -1733 -1731 0
-1698 1731 0
-1698 1700 0
1698 -1700 -1731 0
1699 -1733 0
1699 -1700 0
-1699 1700 1733 0
-1700 1734 0
-1700 1735 0
1700 -1735 -1734 0
1701 1826 -1663 0
1701 -1826 1663 0
-1701 1826 1663 0
-1701 -1826 -1663 0
1702 1704 -1657 0
1702 -1704 1657 0
-1702 1704 1657 0
-1702 -1704 -1657 0
-1703 1827 0
-1703 1840 0
1703 -1840 -1827 0
1704 1840 -1827 0
1704 -1840 1827 0
-1704 1840 1827 0
-1704 -1840 -1827 0
1705 1707 -1673 0
1705 -1707 1673 0
-1705 1707 1673 0
-1705 -1707 -1673 0
-1706 1841 0
-1706 1854 0
1706 -1854 -1841 0
1707 1854 -1841 0
1707 -1854 1841 0
-1707 1854 1841 0
-1707 -1854 -1841 0
1708 1710 -1676 0
1708 -1710 1676 0
-1708 1710 1676 0
-1708 -1710 -1676 0
-1709 1855 0
-1709 1868 0
1709 -1868 -1855 0
1710 1868 -1855 0
1710 -1868 1855 0
-1710 1868 1855 0
-1710 -1868 -1855 0
1711 1713 -1677 0
1711 -1713 1677 0
-1711 1713 1677 0
-1711 -1713 -1677 0
-1712 1869 0
-1712 1882 0
1712 -1882 -1869 0
1713 1882 -1869 0
1713 -1882 1869 0
-1713 1882 1869 0
-1713 -1882 -1869 0
1714 1716 -1660 0
1714 -1716 1660 0
-1714 1716 1660 0
-1714 -1716 -1660 0
-1715 1883 0
-1715 1896 0
1715 -1896 -1883 0
1716 1896 -1883 0
1716 -1896 1883 0
-1716 1896 1883 0
-1716 -1896 -1883 0
1717 1719 -1688 0
1717 -1719 1688 0
-1717 1719 1688 0
-1717 -1719 -1688 0
-1718 1897 0
-1718 1910 0
1718 -1910 -1897 0
1719 1910 -1897 0
1719 -1910 1897 0
-1719 1910 1897 0
-1719 -1910 -1897 0
1720 1722 -1691 0
1720 -1722 1691 0
-1720 1722 1691 0
-1720 -1722 -1691 0
-1721 1911 0
-1721 1924 0
1721 -1924 -1911 0
1722 1924 -1911 0
1722 -1924 1911 0
-1722 1924 1911 0
-1722 -1924 -1911 0
1723 1725 -1692 0
1723 -1725 1692 0
-1723 1725 1692 0
-1723 -1725 -1692 0
-1724 1925 0
-1724 1938 0
1724 -1938 -1925 0
1725 1938 -1925 0
1725 -1938 1925 0
-1725 1938 1925 0
-1725 -1938 -1925 0
1726 1728 -1696 0
1726 -1728 1696 0
-1726 1728 1696 0
-1726 -1728 -1696 0
-1727 1939 0
-1727 1952 0
1727 -1952 -1939 0
1728 1952 -1939 0
1728 -1952 1939 0
-1728 1952 1939 0
-1728 -1952 -1939 0
1729 1699 -1731 0
1729 -1699 1731 0
-1729 1699 1731 0
-1729 -1699 -1731 0
-1730 1953 0
-1730 1966 0
1730 -1966 -1953 0
1731 1966 -1953 0
1731 -1966 1953 0
-1731 1966 1953 0
-1731 -1966 -1953 0
1732 1735 -1734 0
1732 -1735 1734 0
-1732 1735 1734 0
-1732 -1735 -1734 0
-1733 1967 0
-1733 1980 0
1733 -1980 -1967 0
1734 1980 -1967 0
1734 -1980 1967 0
-1734 1980 1967 0
-1734 -1980 -1967 0
-1735 1981 0
-1735 2003 0
1735 -2003 -1981 0
1736 2003 -1981 0
1736 -2003 1981 0
-1736 2003 1981 0
-1736 -2003 -1981 0
-1737 1774 0
-1737 1800 0
1737 -1800 -1774 0
1738 -1739 0
1738 -1740 0
1738 -1747 0
1738 -1748 0
1738 -1749 0
1738 -1787 0
-1738 1787 1749 1748 1747 1740 1739 0
-1739 1751 0
-1739 1762 0
1739 -1762 -1751 0
-1740 1737 0
-1740 1751 0
1740 -1751 -1737 0
1741 -1737 0
1741 -1762 0
-1741 1762 1737 0
1742 -1743 0
1742 -1745 0
-1742 1745 1743 0
-1743 1784 0
-1743 1828 0
1743 -1828 -1784 0
1744 -1746 0
1744 -1784 0
-1744 1784 1746 0
-1745 1746 0
-1745 1828 0
1745 -1828 -1746 0
-1746 1738 0
-1746 1785 0
1746 -1785 -1738 0
-1747 1788 0
-1747 1790 0
1747 -1790 -1788 0
-1748 1755 0
-1748 1788 0
1748 -1788 -1755 0
-1749 1756 0
-1749 1788 0
1749 -1788 -1756 0
-1750 1794 0
-1750 1796 0
1750 -1796 -1794 0
-1751 1752 0
-1751 1788 0
1751 -1788 -1752 0
-1752 1753 0
-1752 1791 0
1752 -1791 -1753 0
-1753 1794 0
-1753 1797 0
1753 -1797 -1794 0
1754 -1755 0
1754 -1756 0
1754 -1759 0
1754 -1790 0
-1754 1790 1759 1756 1755 0
-1755 1791 0
-1755 1793 0
1755 -1793 -1791 0
-1756 1750 0
-1756 1791 0
1756 -1791 -1750 0
1757 -1750 0
1757 -1760 0
1757 -1793 0
-1757 1793 1760 1750 0
1758 -1761 0
1758 -1796 0
-1758 1796 1761 0
-1759 1741 0
-1759 1752 0
1759 -1752 -1741 0
-1760 1741 0
-1760 1753 0
1760 -1753 -1741 0
-1761 1741 0
-1761 1797 0
1761 -1797 -1741 0
1762 -1763 0
1762 -1764 0
1762 -1765 0
1762 -1799 0
-1762 1799 1765 1764 1763 0
-1763 1800 0
-1763 1802 0
1763 -1802 -1800 0
-1764 1770 0
-1764 1800 0
1764 -1800 -1770 0
-1765 1771 0
-1765 1800 0
1765 -1800 -1771 0
-1766 1806 0
-1766 1808 0
1766 -1808 -1806 0
-1767 1768 0
-1767 1803 0
1767 -1803 -1768 0
-1768 1806 0
-1768 1809 0
1768 -1809 -1806 0
1769 -1770 0
1769 -1771 0
1769 -1774 0
1769 -1802 0
-1769 1802 1774 1771 1770 0
-1770 1803 0
-1770 1805 0
1770 -1805 -1803 0
-1771 1766 0
-1771 1803 0
1771 -1803 -1766 0
1772 -1766 0
1772 -1775 0
1772 -1805 0
-1772 1805 1775 1766 0
1773 -1776 0
1773 -1808 0
-1773 1808 1776 0
-1774 1767 0
-1774 1777 0
1774 -1777 -1767 0
-1775 1768 0
-1775 1777 0
1775 -1777 -1768 0
-1776 1777 0
-1776 1809 0
1776 -1809 -1777 0
1777 -1778 0
1777 -1779 0
1777 -1811 0
-1777 1811 1779 1778 0
-1778 1812 0
-1778 1814 0
1778 -1814 -1812 0
-1779 1781 0
-1779 1812 0
1779 -1812 -1781 0
1780 -1781 0
1780 -1814 0
-1780 1814 1781 0
-1781 1815 0
-1781 1816 0
1781 -1816 -1815 0
1782 1828 -1744 0
1782 -1828 1744 0
-1782 1828 1744 0
-1782 -1828 -1744 0
1783 1785 -1738 0
1783 -1785 1738 0
-1783 1785 1738 0
-1783 -1785 -1738 0
-1784 1829 0
-1784 1842 0
1784 -1842 -1829 0
1785 1842 -1829 0
1785 -1842 1829 0
-1785 1842 1829 0
-1785 -1842 -1829 0
1786 1788 -1754 0
1786 -1788 1754 0
-1786 1788 1754 0
-1786 -1788 -1754 0
-1787 1843 0
-1787 1856 0
1787 -1856 -1843 0
1788 1856 -1843 0
1788 -1856 1843 0
-1788 1856 1843 0
-1788 -1856 -1843 0
1789 1791 -1757 0
1789 -1791 1757 0
-1789 1791 1757 0
-1789 -1791 -1757 0
-1790 1857 0
-1790 1870 0
1790 -1870 -1857 0
1791 1870 -1857 0
1791 -1870 1857 0
-1791 1870 1857 0
-1791 -1870 -1857 0
1792 1794 -1758 0
1792 -1794 1758 0
-1792 1794 1758 0
-1792 -1794 -1758 0
-1793 1871 0
-1793 1884 0
1793 -1884 -1871 0
1794 1884 -1871 0
1794 -1884 1871 0
-1794 1884 1871 0
-1794 -1884 -1871 0
1795 1797 -1741 0
1795 -1797 1741 0
-1795 1797 1741 0
-1795 -1797 -1741 0
-1796 1885 0
-1796 1898 0
1796 -1898 -1885 0
1797 1898 -1885 0
1797 -1898 1885 0
-1797 1898 1885 0
-1797 -1898 -1885 0
1798 1800 -1769 0
1798 -1800 1769 0
-1798 1800 1769 0
-1798 -1800 -1769 0
-1799 1899 0
-1799 1912 0
1799 -1912 -1899 0
1800 1912 -1899 0
1800 -1912 1899 0
-1800 1912 1899 0
-1800 -1912 -1899 0
1801 1803 -1772 0
1801 -1803 1772 0
-1801 1803 1772 0
-1801 -1803 -1772 0
-1802 1913 0
-1802 1926 0
1802 -1926 -1913 0
1803 1926 -1913 0
1803 -1926 1913 0
-1803 1926 1913 0
-1803 -1926 -1913 0
1804 1806 -1773 0
1804 -1806 1773 0
-1804 1806 1773 0
-1804 -1806 -1773 0
-1805 1927 0
-1805 1940 0
1805 -1940 -1927 0
1806 1940 -1927 0
1806 -1940 1927 0
-1806 1940 1927 0
-1806 -1940 -1927 0
1807 1809 -1777 0
1807 -1809 1777 0
-1807 1809 1777 0
-1807 -1809 -1777 0
-1808 1941 0
-1808 1954 0
1808 -1954 -1941 0
1809 1954 -1941 0
1809 -1954 1941 0
-1809 1954 1941 0
-1809 -1954 -1941 0
1810 1812 -1780 0
1810 -1812 1780 0
-1810 1812 1780 0
-1810 -1812 -1780 0
-1811 1955 0
-1811 1968 0
1811 -1968 -1955 0
1812 1968 -1955 0
1812 -1968 1955 0
-1812 1968 1955 0
-1812 -1968 -1955 0
1813 1816 -1815 0
1813 -1816 1815 0
-1813 1816 1815 0
-1813 -1816 -1815 0
-1814 1969 0
-1814 1982 0
1814 -1982 -1969 0
1815 1982 -1969 0
1815 -1982 1969 0
-1815 1982 1969 0
-1815 -1982 -1969 0
-1816 1983 0
-1816 2007 0
1816 -2007 -1983 0
-1817 1830 0
-1817 1986 0
1817 -1986 -1830 0
-1818 1830 0
-1818 1988 0
1818 -1988 -1830 0
-1819 1830 0
-1819 1990 0
1819 -1990 -1830 0
-1820 1830 0
-1820 1992 0
1820 -1992 -1830 0
-1821 1830 0
-1821 1994 0
1821 -1994 -1830 0
-1822 1830 0
-1822 1996 0
1822 -1996 -1830 0
-1823 1830 0
-1823 1998 0
1823 -1998 -1830 0
-1824 1830 0
-1824 2000 0
1824 -2000 -1830 0
-1825 1830 0
-1825 2002 0
1825 -2002 -1830 0
-1826 1830 0
-1826 2004 0
1826 -2004 -1830 0
-1827 1830 0
-1827 2006 0
1827 -2006 -1830 0
-1828 1830 0
-1828 2008 0
1828 -2008 -1830 0
-1829 1830 0
-1829 2009 0
1829 -2009 -1830 0
-1831 1844 0
-1831 1986 0
1831 -1986 -1844 0
-1832 1844 0
-1832 1988 0
1832 -1988 -1844 0
-1833 1844 0
-1833 1990 0
1833 -1990 -1844 0
-1834 1844 0
-1834 1992 0
1834 -1992 -1844 0
-1835 1844 0
-1835 1994 0
1835 -1994 -1844 0
-1836 1844 0
-1836 1996 0
1836 -1996 -1844 0
-1837 1844 0
-1837 1998 0
1837 -1998 -1844 0
-1838 1844 0
-1838 2000 0
1838 -2000 -1844 0
-1839 1844 0
-1839 2002 0
1839 -2002 -1844 0
-1840 1844 0
-1840 2004 0
1840 -2004 -1844 0
-1841 1844 0
-1841 2006 0
1841 -2006 -1844 0
-1842 1844 0
-1842 2008 0
1842 -2008 -1844 0
-1843 1844 0
-1843 2009 0
1843 -2009 -1844 0
-1845 1858 0
-1845 1986 0
1845 -1986 -1858 0
-1846 1858 0
-1846 1988 0
1846 -1988 -1858 0
-1847 1858 0
-1847 1990 0
1847 -1990 -1858 0
-1848 1858 0
-1848 1992 0
1848 -1992 -1858 0
-1849 1858 0
-1849 1994 0
1849 -1994 -1858 0
-1850 1858 0
-1850 1996 0
1850 -1996 -1858 0
-1851 1858 0
-1851 1998 0
1851 -1998 -1858 0
-1852 1858 0
-1852 2000 0
1852 -2000 -1858 0
-1853 1858 0
-1853 2002 0
1853 -2002 -1858 0
-1854 1858 0
-1854 2004 0
1854 -2004 -1858 0
-1855 1858 0
-1855 2006 0
1855 -2006 -1858 0
-1856 1858 0
-1856 2008 0
1856 -2008 -1858 0
-1857 1858 0
-1857 2009 0
1857 -2009 -1858 0
-1859 1872 0
-1859 1986 0
1859 -1986 -1872 0
-1860 1872 0
-1860 1988 0
1860 -1988 -1872 0
-1861 1872 0
-1861 1990 0
1861 -1990 -1872 0
-1862 1872 0
-1862 1992 0
1862 -1992 -1872 0
-1863 1872 0
-1863 1994 0
1863 -1994 -1872 0
-1864 1872 0
-1864 1996 0
1864 -1996 -1872 0
-1865 1872 0
-1865 1998 0
1865 -1998 -1872 0
-1866 1872 0
-1866 2000 0
1866 -2000 -1872 0
-1867 1872 0
-1867 2002 0
1867 -2002 -1872 0
-1868 1872 0
-1868 2004 0
1868 -2004 -1872 0
-1869 1872 0
-1869 2006 0
1869 -2006 -1872 0
-1870 1872 0
-1870 2008 0
1870 -2008 -1872 0
-1871 1872 0
-1871 2009 0
1871 -2009 -1872 0
-1873 1886 0
-1873 1986 0
1873 -1986 -1886 0
-1874 1886 0
-1874 1988 0
1874 -1988 -1886 0
-1875 1886 0
-1875 1990 0
1875 -1990 -1886 0
-1876 1886 0
-1876 1992 0
1876 -1992 -1886 0
-1877 1886 0
-1877 1994 0
1877 -1994 -1886 0
-1878 1886 0
-1878 1996 0
1878 -1996 -1886 0
-1879 1886 0
-1879 1998 0
1879 -1998 -1886 0
-1880 1886 0
-1880 2000 0
1880 -2000 -1886 0
-1881 1886 0
-1881 2002 0
1881 -2002 -1886 0
-1882 1886 0
-1882 2004 0
1882 -2004 -1886 0
-1883 1886 0
-1883 2006 0
1883 -2006 -1886 0
-1884 1886 0
-1884 2008 0
1884 -2008 -1886 0
-1885 1886 0
-1885 2009 0
1885 -2009 -1886 0
-1887 1900 0
-1887 1986 0
1887 -1986 -1900 0
-1888 1900 0
-1888 1988 0
1888 -1988 -1900 0
-1889 1900 0
-1889 1990 0
1889 -1990 -1900 0
-1890 1900 0
-1890 1992 0
1890 -1992 -1900 0
-1891 1900 0
-1891 1994 0
1891 -1994 -1900 0
-1892 1900 0
-1892 1996 0
1892 -1996 -1900 0
-1893 1900 0
-1893 1998 0
1893 -1998 -1900 0
-1894 1900 0
-1894 2000 0
1894 -2000 -1900 0
-1895 1900 0
-1895 2002 0
1895 -2002 -1900 0
-1896 1900 0
-1896 2004 0
1896 -2004 -1900 0
-1897 1900 0
-1897 2006 0
1897 -2006 -1900 0
-1898 1900 0
-1898 2008 0
1898 -2008 -1900 0
-1899 1900 0
-1899 2009 0
1899 -2009 -1900 0
-1901 1914 0
-1901 1986 0
1901 -1986 -1914 0
-1902 1914 0
-1902 1988 0
1902 -1988 -1914 0
-1903 1914 0
-1903 1990 0
1903 -1990 -1914 0
-1904 1914 0
-1904 1992 0
1904 -1992 -1914 0
-1905 1914 0
-1905 1994 0
1905 -1994 -1914 0
-1906 1914 0
-1906 1996 0
1906 -1996 -1914 0
-1907 1914 0
-1907 1998 0
1907 -1998 -1914 0
-1908 1914 0
-1908 2000 0
1908 -2000 -1914 0
-1909 1914 0
-1909 2002 0
1909 -2002 -1914 0
-1910 1914 0
-1910 2004 0
1910 -2004 -1914 0
-1911 1914 0
-1911 2006 0
1911 -2006 -1914 0
-1912 1914 0
-1912 2008 0
1912 -2008 -1914 0
-1913 1914 0
-1913 2009 0
1913 -2009 -1914 0
-1915 1928 0
-1915 1986 0
1915 -1986 -1928 0
-1916 1928 0
-1916 1988 0
1916 -1988 -1928 0
-1917 1928 0
-1917 1990 0
1917 -1990 -1928 0
-1918 1928 0
-1918 1992 0
1918 -1992 -1928 0
-1919 1928 0
-1919 1994 0
1919 -1994 -1928 0
-1920 1928 0
-1920 1996 0
1920 -1996 -1928 0
-1921 1928 0
-1921 1998 0
1921 -1998 -1928 0
-1922 1928 0
-1922 2000 0
1922 -2000 -1928 0
-1923 1928 0
-1923 2002 0
1923 -2002 -1928 0
-1924 1928 0
-1924 2004 0
1924 -2004 -1928 0
-1925 1928 0
-1925 2006 0
1925 -2006 -1928 0
-1926 1928 0
-1926 2008 0
1926 -2008 -1928 0
-1927 1928 0
-1927 2009 0
1927 -2009 -1928 0
-1929 1942 0
-1929 1986 0
1929 -1986 -1942 0
-1930 1942 0
-1930 1988 0
1930 -1988 -1942 0
-1931 1942 0
-1931 1990 0
1931 -1990 -1942 0
-1932 1942 0
-1932 1992 0
1932 -1992 -1942 0
-1933 1942 0
-1933 1994 0
1933 -1994 -1942 0
-1934 1942 0
-1934 1996 0
1934 -1996 -1942 0
-1935 1942 0
-1935 1998 0
1935 -1998 -1942 0
-1936 1942 0
-1936 2000 0
1936 -2000 -1942 0
-1937 1942 0
-1937 2002 0
1937 -2002 -1942 0
-1938 1942 0
-1938 2004 0
1938 -2004 -1942 0
-1939 1942 0
-1939 2006 0
1939 -2006 -1942 0
-1940 1942 0
-1940 2008 0
1940 -2008 -1942 0
-1941 1942 0
-1941 2009 0
1941 -2009 -1942 0
-1943 1956 0
-1943 1986 0
1943 -1986 -1956 0
-1944 1956 0
-1944 1988 0
1944 -1988 -1956 0
-1945 1956 0
-1945 1990 0
1945 -1990 -1956 0
-1946 1956 0
-1946 1992 0
1946 -1992 -1956 0
-1947 1956 0
-1947 1994 0
1947 -1994 -1956 0
-1948 1956 0
-1948 1996 0
1948 -1996 -1956 0
-1949 1956 0
-1949 1998 0
1949 -1998 -1956 0
-1950 1956 0
-1950 2000 0
1950 -2000 -1956 0
-1951 1956 0
-1951 2002 0
1951 -2002 -1956 0
-1952 1956 0
-1952 2004 0
1952 -2004 -1956 0
-1953 1956 0
-1953 2006 0
1953 -2006 -1956 0
-1954 1956 0
-1954 2008 0
1954 -2008 -1956 0
-1955 1956 0
-1955 2009 0
1955 -2009 -1956 0
-1957 1970 0
-1957 1986 0
1957 -1986 -1970 0
-1958 1970 0
-1958 1988 0
1958 -1988 -1970 0
-1959 1970 0
-1959 1990 0
1959 -1990 -1970 0
-1960 1970 0
-1960 1992 0
1960 -1992 -1970 0
-1961 1970 0
-1961 1994 0
1961 -1994 -1970 0
-1962 1970 0
-1962 1996 0
1962 -1996 -1970 0
-1963 1970 0
-1963 1998 0
1963 -1998 -1970 0
-1964 1970 0
-1964 2000 0
1964 -2000 -1970 0
-1965 1970 0
-1965 2002 0
1965 -2002 -1970 0
-1966 1970 0
-1966 2004 0
1966 -2004 -1970 0
-1967 1970 0
-1967 2006 0
1967 -2006 -1970 0
-1968 1970 0
-1968 2008 0
1968 -2008 -1970 0
-1969 1970 0
-1969 2009 0
1969 -2009 -1970 0
-1971 1984 0
-1971 1986 0
1971 -1986 -1984 0
-1972 1984 0
-1972 1988 0
1972 -1988 -1984 0
-1973 1984 0
-1973 1990 0
1973 -1990 -1984 0
-1974 1984 0
-1974 1992 0
1974 -1992 -1984 0
-1975 1984 0
-1975 1994 0
1975 -1994 -1984 0
-1976 1984 0
-1976 1996 0
1976 -1996 -1984 0
-1977 1984 0
-1977 1998 0
1977 -1998 -1984 0
-1978 1984 0
-1978 2000 0
1978 -2000 -1984 0
-1979 1984 0
-1979 2002 0
1979 -2002 -1984 0
-1980 1984 0
-1980 2004 0
1980 -2004 -1984 0
-1981 1984 0
-1981 2006 0
1981 -2006 -1984 0
-1982 1984 0
-1982 2008 0
1982 -2008 -1984 0
-1983 1984 0
-1983 2009 0
1983 -2009 -1984 0
-1985 1986 0
-1985 2010 0
1985 -2010 -1986 0
-1987 1988 0
-1987 2010 0
1987 -2010 -1988 0
-1989 1990 0
-1989 2010 0
1989 -2010 -1990 0
-1991 1992 0
-1991 2010 0
1991 -2010 -1992 0
-1993 1994 0
-1993 2010 0
1993 -2010 -1994 0
-1995 1996 0
-1995 2010 0
1995 -2010 -1996 0
-1997 1998 0
-1997 2010 0
1997 -2010 -1998 0
-1999 2000 0
-1999 2010 0
1999 -2010 -2000 0
-2001 2002 0
-2001 2010 0
2001 -2010 -2002 0
-2003 2004 0
-2003 2010 0
2003 -2010 -2004 0
-2005 2006 0
-2005 2010 0
2005 -2010 -2006 0
-2007 2008 0
-2007 2010 0
2007 -2010 -2008 0
