c eq.atree.braun.8 circuit equivalence UNSAT benchmark
c Miter circuit encoding non-equivalence of 8-bit adder trees
c Generated for ay SAT solver test suite
p cnf 684 919
-17 0
-18 1 9 0
-18 -1 -9 0
18 -1 9 0
18 1 -9 0
-19 18 17 0
-19 -18 -17 0
19 -18 17 0
19 18 -17 0
-20 1 0
-20 9 0
20 -1 -9 0
-21 17 0
-21 18 0
21 -17 -18 0
22 -20 0
22 -21 0
-22 20 21 0
-23 2 10 0
-23 -2 -10 0
23 -2 10 0
23 2 -10 0
-24 23 22 0
-24 -23 -22 0
24 -23 22 0
24 23 -22 0
-25 2 0
-25 10 0
25 -2 -10 0
-26 22 0
-26 23 0
26 -22 -23 0
27 -25 0
27 -26 0
-27 25 26 0
-28 3 11 0
-28 -3 -11 0
28 -3 11 0
28 3 -11 0
-29 28 27 0
-29 -28 -27 0
29 -28 27 0
29 28 -27 0
-30 3 0
-30 11 0
30 -3 -11 0
-31 27 0
-31 28 0
31 -27 -28 0
32 -30 0
32 -31 0
-32 30 31 0
-33 4 12 0
-33 -4 -12 0
33 -4 12 0
33 4 -12 0
-34 33 32 0
-34 -33 -32 0
34 -33 32 0
34 33 -32 0
-35 4 0
-35 12 0
35 -4 -12 0
-36 32 0
-36 33 0
36 -32 -33 0
37 -35 0
37 -36 0
-37 35 36 0
-38 5 13 0
-38 -5 -13 0
38 -5 13 0
38 5 -13 0
-39 38 37 0
-39 -38 -37 0
39 -38 37 0
39 38 -37 0
-40 5 0
-40 13 0
40 -5 -13 0
-41 37 0
-41 38 0
41 -37 -38 0
42 -40 0
42 -41 0
-42 40 41 0
-43 6 14 0
-43 -6 -14 0
43 -6 14 0
43 6 -14 0
-44 43 42 0
-44 -43 -42 0
44 -43 42 0
44 43 -42 0
-45 6 0
-45 14 0
45 -6 -14 0
-46 42 0
-46 43 0
46 -42 -43 0
47 -45 0
47 -46 0
-47 45 46 0
-48 7 15 0
-48 -7 -15 0
48 -7 15 0
48 7 -15 0
-49 48 47 0
-49 -48 -47 0
49 -48 47 0
49 48 -47 0
-50 7 0
-50 15 0
50 -7 -15 0
-51 47 0
-51 48 0
51 -47 -48 0
52 -50 0
52 -51 0
-52 50 51 0
-53 8 16 0
-53 -8 -16 0
53 -8 16 0
53 8 -16 0
-54 53 52 0
-54 -53 -52 0
54 -53 52 0
54 53 -52 0
-55 8 0
-55 16 0
55 -8 -16 0
-56 52 0
-56 53 0
56 -52 -53 0
57 -55 0
57 -56 0
-57 55 56 0
-58 0
-59 1 9 0
-59 -1 -9 0
59 -1 9 0
59 1 -9 0
-60 59 58 0
-60 -59 -58 0
60 -59 58 0
60 59 -58 0
-61 1 0
-61 9 0
61 -1 -9 0
-62 1 0
-62 58 0
62 -1 -58 0
-63 9 0
-63 58 0
63 -9 -58 0
64 -61 0
64 -62 0
-64 61 62 0
65 -64 0
65 -63 0
-65 64 63 0
-66 2 10 0
-66 -2 -10 0
66 -2 10 0
66 2 -10 0
-67 66 65 0
-67 -66 -65 0
67 -66 65 0
67 66 -65 0
-68 2 0
-68 10 0
68 -2 -10 0
-69 2 0
-69 65 0
69 -2 -65 0
-70 10 0
-70 65 0
70 -10 -65 0
71 -68 0
71 -69 0
-71 68 69 0
72 -71 0
72 -70 0
-72 71 70 0
-73 3 11 0
-73 -3 -11 0
73 -3 11 0
73 3 -11 0
-74 73 72 0
-74 -73 -72 0
74 -73 72 0
74 73 -72 0
-75 3 0
-75 11 0
75 -3 -11 0
-76 3 0
-76 72 0
76 -3 -72 0
-77 11 0
-77 72 0
77 -11 -72 0
78 -75 0
78 -76 0
-78 75 76 0
79 -78 0
79 -77 0
-79 78 77 0
-80 4 12 0
-80 -4 -12 0
80 -4 12 0
80 4 -12 0
-81 80 79 0
-81 -80 -79 0
81 -80 79 0
81 80 -79 0
-82 4 0
-82 12 0
82 -4 -12 0
-83 4 0
-83 79 0
83 -4 -79 0
-84 12 0
-84 79 0
84 -12 -79 0
85 -82 0
85 -83 0
-85 82 83 0
86 -85 0
86 -84 0
-86 85 84 0
-87 5 13 0
-87 -5 -13 0
87 -5 13 0
87 5 -13 0
-88 87 86 0
-88 -87 -86 0
88 -87 86 0
88 87 -86 0
-89 5 0
-89 13 0
89 -5 -13 0
-90 5 0
-90 86 0
90 -5 -86 0
-91 13 0
-91 86 0
91 -13 -86 0
92 -89 0
92 -90 0
-92 89 90 0
93 -92 0
93 -91 0
-93 92 91 0
-94 6 14 0
-94 -6 -14 0
94 -6 14 0
94 6 -14 0
-95 94 93 0
-95 -94 -93 0
95 -94 93 0
95 94 -93 0
-96 6 0
-96 14 0
96 -6 -14 0
-97 6 0
-97 93 0
97 -6 -93 0
-98 14 0
-98 93 0
98 -14 -93 0
99 -96 0
99 -97 0
-99 96 97 0
100 -99 0
100 -98 0
-100 99 98 0
-101 7 15 0
-101 -7 -15 0
101 -7 15 0
101 7 -15 0
-102 101 100 0
-102 -101 -100 0
102 -101 100 0
102 101 -100 0
-103 7 0
-103 15 0
103 -7 -15 0
-104 7 0
-104 100 0
104 -7 -100 0
-105 15 0
-105 100 0
105 -15 -100 0
106 -103 0
106 -104 0
-106 103 104 0
107 -106 0
107 -105 0
-107 106 105 0
-108 8 16 0
-108 -8 -16 0
108 -8 16 0
108 8 -16 0
-109 108 107 0
-109 -108 -107 0
109 -108 107 0
109 108 -107 0
-110 8 0
-110 16 0
110 -8 -16 0
-111 8 0
-111 107 0
111 -8 -107 0
-112 16 0
-112 107 0
112 -16 -107 0
113 -110 0
113 -111 0
-113 110 111 0
114 -113 0
114 -112 0
-114 113 112 0
-115 19 60 0
-115 -19 -60 0
115 -19 60 0
115 19 -60 0
-116 24 67 0
-116 -24 -67 0
116 -24 67 0
116 24 -67 0
-117 29 74 0
-117 -29 -74 0
117 -29 74 0
117 29 -74 0
-118 34 81 0
-118 -34 -81 0
118 -34 81 0
118 34 -81 0
-119 39 88 0
-119 -39 -88 0
119 -39 88 0
119 39 -88 0
-120 44 95 0
-120 -44 -95 0
120 -44 95 0
120 44 -95 0
-121 49 102 0
-121 -49 -102 0
121 -49 102 0
121 49 -102 0
-122 54 109 0
-122 -54 -109 0
122 -54 109 0
122 54 -109 0
-123 57 114 0
-123 -57 -114 0
123 -57 114 0
123 57 -114 0
115 116 117 118 119 120 121 122 123 0
-124 125 0
124 -125 0
-126 127 0
126 -127 0
-128 129 0
128 -129 0
-130 131 0
130 -131 0
-132 133 0
132 -133 0
-134 135 0
134 -135 0
-136 137 0
136 -137 0
-138 139 0
138 -139 0
-140 141 0
140 -141 0
-142 143 0
142 -143 0
-144 145 0
144 -145 0
-146 147 0
146 -147 0
-148 149 0
148 -149 0
-150 151 0
150 -151 0
-152 153 0
152 -153 0
-154 155 0
154 -155 0
-156 157 0
156 -157 0
-158 159 0
158 -159 0
-160 161 0
160 -161 0
-162 163 0
162 -163 0
-164 165 0
164 -165 0
-166 167 0
166 -167 0
-168 169 0
168 -169 0
-170 171 0
170 -171 0
-172 173 0
172 -173 0
-174 175 0
174 -175 0
-176 177 0
176 -177 0
-178 179 0
178 -179 0
-180 181 0
180 -181 0
-182 183 0
182 -183 0
-184 185 0
184 -185 0
-186 187 0
186 -187 0
-188 189 0
188 -189 0
-190 191 0
190 -191 0
-192 193 0
192 -193 0
-194 195 0
194 -195 0
-196 197 0
196 -197 0
-198 199 0
198 -199 0
-200 201 0
200 -201 0
-202 203 0
202 -203 0
-204 205 0
204 -205 0
-206 207 0
206 -207 0
-208 209 0
208 -209 0
-210 211 0
210 -211 0
-212 213 0
212 -213 0
-214 215 0
214 -215 0
-216 217 0
216 -217 0
-218 219 0
218 -219 0
-220 221 0
220 -221 0
-222 223 0
222 -223 0
-224 225 0
224 -225 0
-226 227 0
226 -227 0
-228 229 0
228 -229 0
-230 231 0
230 -231 0
-232 233 0
232 -233 0
-234 235 0
234 -235 0
-236 237 0
236 -237 0
-238 239 0
238 -239 0
-240 241 0
240 -241 0
-242 243 0
242 -243 0
-244 245 0
244 -245 0
-246 247 0
246 -247 0
-248 249 0
248 -249 0
-250 251 0
250 -251 0
-252 253 0
252 -253 0
-254 255 0
254 -255 0
-256 257 0
256 -257 0
-258 259 0
258 -259 0
-260 261 0
260 -261 0
-262 263 0
262 -263 0
-264 265 0
264 -265 0
-266 267 0
266 -267 0
-268 269 0
268 -269 0
-270 271 0
270 -271 0
-272 273 0
272 -273 0
-274 275 0
274 -275 0
-276 277 0
276 -277 0
-278 279 0
278 -279 0
-280 281 0
280 -281 0
-282 283 0
282 -283 0
-284 285 0
284 -285 0
-286 287 0
286 -287 0
-288 289 0
288 -289 0
-290 291 0
290 -291 0
-292 293 0
292 -293 0
-294 295 0
294 -295 0
-296 297 0
296 -297 0
-298 299 0
298 -299 0
-300 301 0
300 -301 0
-302 303 0
302 -303 0
-304 305 0
304 -305 0
-306 307 0
306 -307 0
-308 309 0
308 -309 0
-310 311 0
310 -311 0
-312 313 0
312 -313 0
-314 315 0
314 -315 0
-316 317 0
316 -317 0
-318 319 0
318 -319 0
-320 321 0
320 -321 0
-322 323 0
322 -323 0
-324 325 0
324 -325 0
-326 327 0
326 -327 0
-328 329 0
328 -329 0
-330 331 0
330 -331 0
-332 333 0
332 -333 0
-334 335 0
334 -335 0
-336 337 0
336 -337 0
-338 339 0
338 -339 0
-340 341 0
340 -341 0
-342 343 0
342 -343 0
-344 345 0
344 -345 0
-346 347 0
346 -347 0
-348 349 0
348 -349 0
-350 351 0
350 -351 0
-352 353 0
352 -353 0
-354 355 0
354 -355 0
-356 357 0
356 -357 0
-358 359 0
358 -359 0
-360 361 0
360 -361 0
-362 363 0
362 -363 0
-364 365 0
364 -365 0
-366 367 0
366 -367 0
-368 369 0
368 -369 0
-370 371 0
370 -371 0
-372 373 0
372 -373 0
-374 375 0
374 -375 0
-376 377 0
376 -377 0
-378 379 0
378 -379 0
-380 381 0
380 -381 0
-382 383 0
382 -383 0
-384 385 0
384 -385 0
-386 387 0
386 -387 0
-388 389 0
388 -389 0
-390 391 0
390 -391 0
-392 393 0
392 -393 0
-394 395 0
394 -395 0
-396 397 0
396 -397 0
-398 399 0
398 -399 0
-400 401 0
400 -401 0
-402 403 0
402 -403 0
-404 405 0
404 -405 0
-406 407 0
406 -407 0
-408 409 0
408 -409 0
-410 411 0
410 -411 0
-412 413 0
412 -413 0
-414 415 0
414 -415 0
-416 417 0
416 -417 0
-418 419 0
418 -419 0
-420 421 0
420 -421 0
-422 423 0
422 -423 0
-424 425 0
424 -425 0
-426 427 0
426 -427 0
-428 429 0
428 -429 0
-430 431 0
430 -431 0
-432 433 0
432 -433 0
-434 435 0
434 -435 0
-436 437 0
436 -437 0
-438 439 0
438 -439 0
-440 441 0
440 -441 0
-442 443 0
442 -443 0
-444 445 0
444 -445 0
-446 447 0
446 -447 0
-448 449 0
448 -449 0
-450 451 0
450 -451 0
-452 453 0
452 -453 0
-454 455 0
454 -455 0
-456 457 0
456 -457 0
-458 459 0
458 -459 0
-460 461 0
460 -461 0
-462 463 0
462 -463 0
-464 465 0
464 -465 0
-466 467 0
466 -467 0
-468 469 0
468 -469 0
-470 471 0
470 -471 0
-472 473 0
472 -473 0
-474 475 0
474 -475 0
-476 477 0
476 -477 0
-478 479 0
478 -479 0
-480 481 0
480 -481 0
-482 483 0
482 -483 0
-484 485 0
484 -485 0
-486 487 0
486 -487 0
-488 489 0
488 -489 0
-490 491 0
490 -491 0
-492 493 0
492 -493 0
-494 495 0
494 -495 0
-496 497 0
496 -497 0
-498 499 0
498 -499 0
-500 501 0
500 -501 0
-502 503 0
502 -503 0
-504 505 0
504 -505 0
-506 507 0
506 -507 0
-508 509 0
508 -509 0
-510 511 0
510 -511 0
-512 513 0
512 -513 0
-514 515 0
514 -515 0
-516 517 0
516 -517 0
-518 519 0
518 -519 0
-520 521 0
520 -521 0
-522 523 0
522 -523 0
-524 525 0
524 -525 0
-526 527 0
526 -527 0
-528 529 0
528 -529 0
-530 531 0
530 -531 0
-532 533 0
532 -533 0
-534 535 0
534 -535 0
-536 537 0
536 -537 0
-538 539 0
538 -539 0
-540 541 0
540 -541 0
-542 543 0
542 -543 0
-544 545 0
544 -545 0
-546 547 0
546 -547 0
-548 549 0
548 -549 0
-550 551 0
550 -551 0
-552 553 0
552 -553 0
-554 555 0
554 -555 0
-556 557 0
556 -557 0
-558 559 0
558 -559 0
-560 561 0
560 -561 0
-562 563 0
562 -563 0
-564 565 0
564 -565 0
-566 567 0
566 -567 0
-568 569 0
568 -569 0
-570 571 0
570 -571 0
-572 573 0
572 -573 0
-574 575 0
574 -575 0
-576 577 0
576 -577 0
-578 579 0
578 -579 0
-580 581 0
580 -581 0
-582 583 0
582 -583 0
-584 585 0
584 -585 0
-586 587 0
586 -587 0
-588 589 0
588 -589 0
-590 591 0
590 -591 0
-592 593 0
592 -593 0
-594 595 0
594 -595 0
-596 597 0
596 -597 0
-598 599 0
598 -599 0
-600 601 0
600 -601 0
-602 603 0
602 -603 0
-604 605 0
604 -605 0
-606 607 0
606 -607 0
-608 609 0
608 -609 0
-610 611 0
610 -611 0
-612 613 0
612 -613 0
-614 615 0
614 -615 0
-616 617 0
616 -617 0
-618 619 0
618 -619 0
-620 621 0
620 -621 0
-622 623 0
622 -623 0
-624 625 0
624 -625 0
-626 627 0
626 -627 0
-628 629 0
628 -629 0
-630 631 0
630 -631 0
-632 633 0
632 -633 0
-634 635 0
634 -635 0
-636 637 0
636 -637 0
-638 639 0
638 -639 0
-640 641 0
640 -641 0
-642 643 0
642 -643 0
-644 645 0
644 -645 0
-646 647 0
646 -647 0
-648 649 0
648 -649 0
-650 651 0
650 -651 0
-652 653 0
652 -653 0
-654 655 0
654 -655 0
-656 657 0
656 -657 0
-658 659 0
658 -659 0
-660 661 0
660 -661 0
-662 663 0
662 -663 0
-664 665 0
664 -665 0
-666 667 0
666 -667 0
-668 669 0
668 -669 0
-670 671 0
670 -671 0
-672 673 0
672 -673 0
-674 675 0
674 -675 0
-676 677 0
676 -677 0
-678 679 0
678 -679 0
-680 681 0
680 -681 0
-682 683 0
682 -683 0
