p cnf 892 3006
-1 2 0
-1 3 0
-1 4 0
-1 5 0
-1 6 0
-1 7 0
-1 8 0
-1 9 0
-1 10 0
-1 11 0
-1 12 0
-1 13 0
-1 14 0
-1 15 0
-1 16 0
-1 17 0
1 -17 -16 -15 -14 -13 -12 -11 -10 -9 -8 -7 -6 -5 -4 -3 -2 0
-1 0
2 359 20 0
2 -359 -20 0
-2 359 -20 0
-2 -359 20 0
3 360 22 0
3 -360 -22 0
-3 360 -22 0
-3 -360 22 0
4 363 27 0
4 -363 -27 0
-4 363 -27 0
-4 -363 27 0
5 366 32 0
5 -366 -32 0
-5 366 -32 0
-5 -366 32 0
6 369 37 0
6 -369 -37 0
-6 369 -37 0
-6 -369 37 0
7 372 42 0
7 -372 -42 0
-7 372 -42 0
-7 -372 42 0
8 375 47 0
8 -375 -47 0
-8 375 -47 0
-8 -375 47 0
9 378 52 0
9 -378 -52 0
-9 378 -52 0
-9 -378 52 0
10 381 56 0
10 -381 -56 0
-10 381 -56 0
-10 -381 56 0
11 385 94 0
11 -385 -94 0
-11 385 -94 0
-11 -385 94 0
12 132 453 0
12 -132 -453 0
-12 132 -453 0
-12 -132 453 0
13 456 172 0
13 -456 -172 0
-13 456 -172 0
-13 -456 172 0
14 459 210 0
14 -459 -210 0
-14 459 -210 0
-14 -459 210 0
15 463 250 0
15 -463 -250 0
-15 463 -250 0
-15 -463 250 0
16 591 288 0
16 -591 -288 0
-16 591 -288 0
-16 -591 288 0
17 595 328 0
17 -595 -328 0
-17 595 -328 0
-17 -595 328 0
-18 -876 0
-18 -878 0
-18 -880 0
-18 -882 0
-18 -884 0
-18 -886 0
-18 -888 0
-18 -890 0
-18 891 0
18 -891 890 888 886 884 882 880 878 876 0
-18 0
-19 -804 0
-19 -814 0
-19 -824 0
-19 -834 0
-19 -844 0
-19 -854 0
-19 -864 0
-19 -874 0
-19 892 0
19 -892 874 864 854 844 834 824 814 804 0
-19 0
20 -21 0
20 -23 0
-20 23 21 0
-21 24 0
-21 25 0
21 -25 -24 0
22 25 -24 0
22 -25 24 0
-22 25 24 0
-22 -25 -24 0
-23 57 0
-23 795 0
23 -795 -57 0
24 795 -57 0
24 -795 57 0
-24 795 57 0
-24 -795 -57 0
25 -26 0
25 -28 0
-25 28 26 0
-26 29 0
-26 30 0
26 -30 -29 0
27 30 -29 0
27 -30 29 0
-27 30 29 0
-27 -30 -29 0
-28 59 0
-28 62 0
28 -62 -59 0
29 62 -59 0
29 -62 59 0
-29 62 59 0
-29 -62 -59 0
30 -31 0
30 -33 0
-30 33 31 0
-31 34 0
-31 35 0
31 -35 -34 0
32 35 -34 0
32 -35 34 0
-32 35 34 0
-32 -35 -34 0
-33 64 0
-33 67 0
33 -67 -64 0
34 67 -64 0
34 -67 64 0
-34 67 64 0
-34 -67 -64 0
35 -36 0
35 -38 0
-35 38 36 0
-36 39 0
-36 40 0
36 -40 -39 0
37 40 -39 0
37 -40 39 0
-37 40 39 0
-37 -40 -39 0
-38 69 0
-38 72 0
38 -72 -69 0
39 72 -69 0
39 -72 69 0
-39 72 69 0
-39 -72 -69 0
40 -41 0
40 -43 0
-40 43 41 0
-41 44 0
-41 45 0
41 -45 -44 0
42 45 -44 0
42 -45 44 0
-42 45 44 0
-42 -45 -44 0
-43 74 0
-43 77 0
43 -77 -74 0
44 77 -74 0
44 -77 74 0
-44 77 74 0
-44 -77 -74 0
45 -46 0
45 -48 0
-45 48 46 0
-46 49 0
-46 50 0
46 -50 -49 0
47 50 -49 0
47 -50 49 0
-47 50 49 0
-47 -50 -49 0
-48 79 0
-48 82 0
48 -82 -79 0
49 82 -79 0
49 -82 79 0
-49 82 79 0
-49 -82 -79 0
50 -51 0
50 -53 0
-50 53 51 0
-51 54 0
-51 55 0
51 -55 -54 0
52 55 -54 0
52 -55 54 0
-52 55 54 0
-52 -55 -54 0
-53 84 0
-53 87 0
53 -87 -84 0
54 87 -84 0
54 -87 84 0
-54 87 84 0
-54 -87 -84 0
-55 89 0
-55 92 0
55 -92 -89 0
56 92 -89 0
56 -92 89 0
-56 92 89 0
-56 -92 -89 0
57 -58 0
57 -60 0
-57 60 58 0
-58 61 0
-58 97 0
58 -97 -61 0
59 97 -61 0
59 -97 61 0
-59 97 61 0
-59 -97 -61 0
-60 796 0
-60 805 0
60 -805 -796 0
61 805 -796 0
61 -805 796 0
-61 805 796 0
-61 -805 -796 0
62 -63 0
62 -65 0
-62 65 63 0
-63 66 0
-63 100 0
63 -100 -66 0
64 100 -66 0
64 -100 66 0
-64 100 66 0
-64 -100 -66 0
-65 99 0
-65 815 0
65 -815 -99 0
66 815 -99 0
66 -815 99 0
-66 815 99 0
-66 -815 -99 0
67 -68 0
67 -70 0
-67 70 68 0
-68 71 0
-68 105 0
68 -105 -71 0
69 105 -71 0
69 -105 71 0
-69 105 71 0
-69 -105 -71 0
-70 102 0
-70 825 0
70 -825 -102 0
71 825 -102 0
71 -825 102 0
-71 825 102 0
-71 -825 -102 0
72 -73 0
72 -75 0
-72 75 73 0
-73 76 0
-73 110 0
73 -110 -76 0
74 110 -76 0
74 -110 76 0
-74 110 76 0
-74 -110 -76 0
-75 107 0
-75 835 0
75 -835 -107 0
76 835 -107 0
76 -835 107 0
-76 835 107 0
-76 -835 -107 0
77 -78 0
77 -80 0
-77 80 78 0
-78 81 0
-78 115 0
78 -115 -81 0
79 115 -81 0
79 -115 81 0
-79 115 81 0
-79 -115 -81 0
-80 112 0
-80 845 0
80 -845 -112 0
81 845 -112 0
81 -845 112 0
-81 845 112 0
-81 -845 -112 0
82 -83 0
82 -85 0
-82 85 83 0
-83 86 0
-83 120 0
83 -120 -86 0
84 120 -86 0
84 -120 86 0
-84 120 86 0
-84 -120 -86 0
-85 117 0
-85 855 0
85 -855 -117 0
86 855 -117 0
86 -855 117 0
-86 855 117 0
-86 -855 -117 0
87 -88 0
87 -90 0
-87 90 88 0
-88 91 0
-88 125 0
88 -125 -91 0
89 125 -91 0
89 -125 91 0
-89 125 91 0
-89 -125 -91 0
-90 122 0
-90 865 0
90 -865 -122 0
91 865 -122 0
91 -865 122 0
-91 865 122 0
-91 -865 -122 0
92 -93 0
92 -95 0
-92 95 93 0
-93 96 0
-93 130 0
93 -130 -96 0
94 130 -96 0
94 -130 96 0
-94 130 96 0
-94 -130 -96 0
-95 127 0
-95 875 0
95 -875 -127 0
96 875 -127 0
96 -875 127 0
-96 875 127 0
-96 -875 -127 0
97 -98 0
97 -624 0
-97 624 98 0
-98 135 0
-98 625 0
98 -625 -135 0
99 625 -135 0
99 -625 135 0
-99 625 135 0
-99 -625 -135 0
100 -101 0
100 -103 0
-100 103 101 0
-101 104 0
-101 140 0
101 -140 -104 0
102 140 -104 0
102 -140 104 0
-102 140 104 0
-102 -140 -104 0
-103 137 0
-103 816 0
103 -816 -137 0
104 816 -137 0
104 -816 137 0
-104 816 137 0
-104 -816 -137 0
105 -106 0
105 -108 0
-105 108 106 0
-106 109 0
-106 145 0
106 -145 -109 0
107 145 -109 0
107 -145 109 0
-107 145 109 0
-107 -145 -109 0
-108 142 0
-108 826 0
108 -826 -142 0
109 826 -142 0
109 -826 142 0
-109 826 142 0
-109 -826 -142 0
110 -111 0
110 -113 0
-110 113 111 0
-111 150 0
-111 114 0
111 -114 -150 0
112 114 -150 0
112 -114 150 0
-112 114 150 0
-112 -114 -150 0
-113 147 0
-113 836 0
113 -836 -147 0
114 836 -147 0
114 -836 147 0
-114 836 147 0
-114 -836 -147 0
115 -116 0
115 -118 0
-115 118 116 0
-116 155 0
-116 119 0
116 -119 -155 0
117 119 -155 0
117 -119 155 0
-117 119 155 0
-117 -119 -155 0
-118 152 0
-118 846 0
118 -846 -152 0
119 846 -152 0
119 -846 152 0
-119 846 152 0
-119 -846 -152 0
120 -121 0
120 -123 0
-120 123 121 0
-121 160 0
-121 124 0
121 -124 -160 0
122 124 -160 0
122 -124 160 0
-122 124 160 0
-122 -124 -160 0
-123 157 0
-123 856 0
123 -856 -157 0
124 856 -157 0
124 -856 157 0
-124 856 157 0
-124 -856 -157 0
125 -126 0
125 -128 0
-125 128 126 0
-126 165 0
-126 129 0
126 -129 -165 0
127 129 -165 0
127 -129 165 0
-127 129 165 0
-127 -129 -165 0
-128 162 0
-128 866 0
128 -866 -162 0
129 866 -162 0
129 -866 162 0
-129 866 162 0
-129 -866 -162 0
130 -131 0
130 -133 0
-130 133 131 0
-131 170 0
-131 134 0
131 -134 -170 0
132 134 -170 0
132 -134 170 0
-132 134 170 0
-132 -134 -170 0
-133 167 0
-133 877 0
133 -877 -167 0
134 877 -167 0
134 -877 167 0
-134 877 167 0
-134 -877 -167 0
135 -136 0
135 -138 0
-135 138 136 0
-136 175 0
-136 139 0
136 -139 -175 0
137 139 -175 0
137 -139 175 0
-137 139 175 0
-137 -139 -175 0
-138 798 0
-138 807 0
138 -807 -798 0
139 807 -798 0
139 -807 798 0
-139 807 798 0
-139 -807 -798 0
140 -141 0
140 -143 0
-140 143 141 0
-141 178 0
-141 144 0
141 -144 -178 0
142 144 -178 0
142 -144 178 0
-142 144 178 0
-142 -144 -178 0
-143 177 0
-143 817 0
143 -817 -177 0
144 817 -177 0
144 -817 177 0
-144 817 177 0
-144 -817 -177 0
145 -146 0
145 -148 0
-145 148 146 0
-146 149 0
-146 183 0
146 -183 -149 0
147 183 -149 0
147 -183 149 0
-147 183 149 0
-147 -183 -149 0
-148 180 0
-148 827 0
148 -827 -180 0
149 827 -180 0
149 -827 180 0
-149 827 180 0
-149 -827 -180 0
150 -151 0
150 -153 0
-150 153 151 0
-151 154 0
-151 188 0
151 -188 -154 0
152 188 -154 0
152 -188 154 0
-152 188 154 0
-152 -188 -154 0
-153 185 0
-153 837 0
153 -837 -185 0
154 837 -185 0
154 -837 185 0
-154 837 185 0
-154 -837 -185 0
155 -156 0
155 -158 0
-155 158 156 0
-156 159 0
-156 193 0
156 -193 -159 0
157 193 -159 0
157 -193 159 0
-157 193 159 0
-157 -193 -159 0
-158 190 0
-158 847 0
158 -847 -190 0
159 847 -190 0
159 -847 190 0
-159 847 190 0
-159 -847 -190 0
160 -161 0
160 -163 0
-160 163 161 0
-161 164 0
-161 198 0
161 -198 -164 0
162 198 -164 0
162 -198 164 0
-162 198 164 0
-162 -198 -164 0
-163 195 0
-163 857 0
163 -857 -195 0
164 857 -195 0
164 -857 195 0
-164 857 195 0
-164 -857 -195 0
165 -166 0
165 -168 0
-165 168 166 0
-166 169 0
-166 203 0
166 -203 -169 0
167 203 -169 0
167 -203 169 0
-167 203 169 0
-167 -203 -169 0
-168 200 0
-168 867 0
168 -867 -200 0
169 867 -200 0
169 -867 200 0
-169 867 200 0
-169 -867 -200 0
170 -171 0
170 -173 0
-170 173 171 0
-171 174 0
-171 208 0
171 -208 -174 0
172 208 -174 0
172 -208 174 0
-172 208 174 0
-172 -208 -174 0
-173 205 0
-173 879 0
173 -879 -205 0
174 879 -205 0
174 -879 205 0
-174 879 205 0
-174 -879 -205 0
175 -176 0
175 -674 0
-175 674 176 0
-176 213 0
-176 675 0
176 -675 -213 0
177 675 -213 0
177 -675 213 0
-177 675 213 0
-177 -675 -213 0
178 -179 0
178 -181 0
-178 181 179 0
-179 182 0
-179 218 0
179 -218 -182 0
180 218 -182 0
180 -218 182 0
-180 218 182 0
-180 -218 -182 0
-181 215 0
-181 818 0
181 -818 -215 0
182 818 -215 0
182 -818 215 0
-182 818 215 0
-182 -818 -215 0
183 -184 0
183 -186 0
-183 186 184 0
-184 187 0
-184 223 0
184 -223 -187 0
185 223 -187 0
185 -223 187 0
-185 223 187 0
-185 -223 -187 0
-186 220 0
-186 828 0
186 -828 -220 0
187 828 -220 0
187 -828 220 0
-187 828 220 0
-187 -828 -220 0
188 -189 0
188 -191 0
-188 191 189 0
-189 192 0
-189 228 0
189 -228 -192 0
190 228 -192 0
190 -228 192 0
-190 228 192 0
-190 -228 -192 0
-191 225 0
-191 838 0
191 -838 -225 0
192 838 -225 0
192 -838 225 0
-192 838 225 0
-192 -838 -225 0
193 -194 0
193 -196 0
-193 196 194 0
-194 197 0
-194 233 0
194 -233 -197 0
195 233 -197 0
195 -233 197 0
-195 233 197 0
-195 -233 -197 0
-196 230 0
-196 848 0
196 -848 -230 0
197 848 -230 0
197 -848 230 0
-197 848 230 0
-197 -848 -230 0
198 -199 0
198 -201 0
-198 201 199 0
-199 202 0
-199 238 0
199 -238 -202 0
200 238 -202 0
200 -238 202 0
-200 238 202 0
-200 -238 -202 0
-201 235 0
-201 858 0
201 -858 -235 0
202 858 -235 0
202 -858 235 0
-202 858 235 0
-202 -858 -235 0
203 -204 0
203 -206 0
-203 206 204 0
-204 207 0
-204 243 0
204 -243 -207 0
205 243 -207 0
205 -243 207 0
-205 243 207 0
-205 -243 -207 0
-206 240 0
-206 868 0
206 -868 -240 0
207 868 -240 0
207 -868 240 0
-207 868 240 0
-207 -868 -240 0
208 -209 0
208 -211 0
-208 211 209 0
-209 212 0
-209 248 0
209 -248 -212 0
210 248 -212 0
210 -248 212 0
-210 248 212 0
-210 -248 -212 0
-211 245 0
-211 881 0
211 -881 -245 0
212 881 -245 0
212 -881 245 0
-212 881 245 0
-212 -881 -245 0
213 -214 0
213 -216 0
-213 216 214 0
-214 217 0
-214 253 0
214 -253 -217 0
215 253 -217 0
215 -253 217 0
-215 253 217 0
-215 -253 -217 0
-216 800 0
-216 809 0
216 -809 -800 0
217 809 -800 0
217 -809 800 0
-217 809 800 0
-217 -809 -800 0
218 -219 0
218 -221 0
-218 221 219 0
-219 222 0
-219 256 0
219 -256 -222 0
220 256 -222 0
220 -256 222 0
-220 256 222 0
-220 -256 -222 0
-221 255 0
-221 819 0
221 -819 -255 0
222 819 -255 0
222 -819 255 0
-222 819 255 0
-222 -819 -255 0
223 -224 0
223 -226 0
-223 226 224 0
-224 227 0
-224 261 0
224 -261 -227 0
225 261 -227 0
225 -261 227 0
-225 261 227 0
-225 -261 -227 0
-226 258 0
-226 829 0
226 -829 -258 0
227 829 -258 0
227 -829 258 0
-227 829 258 0
-227 -829 -258 0
228 -229 0
228 -231 0
-228 231 229 0
-229 232 0
-229 266 0
229 -266 -232 0
230 266 -232 0
230 -266 232 0
-230 266 232 0
-230 -266 -232 0
-231 263 0
-231 839 0
231 -839 -263 0
232 839 -263 0
232 -839 263 0
-232 839 263 0
-232 -839 -263 0
233 -234 0
233 -236 0
-233 236 234 0
-234 237 0
-234 271 0
234 -271 -237 0
235 271 -237 0
235 -271 237 0
-235 271 237 0
-235 -271 -237 0
-236 268 0
-236 849 0
236 -849 -268 0
237 849 -268 0
237 -849 268 0
-237 849 268 0
-237 -849 -268 0
238 -239 0
238 -241 0
-238 241 239 0
-239 242 0
-239 276 0
239 -276 -242 0
240 276 -242 0
240 -276 242 0
-240 276 242 0
-240 -276 -242 0
-241 273 0
-241 859 0
241 -859 -273 0
242 859 -273 0
242 -859 273 0
-242 859 273 0
-242 -859 -273 0
243 -244 0
243 -246 0
-243 246 244 0
-244 247 0
-244 281 0
244 -281 -247 0
245 281 -247 0
245 -281 247 0
-245 281 247 0
-245 -281 -247 0
-246 278 0
-246 869 0
246 -869 -278 0
247 869 -278 0
247 -869 278 0
-247 869 278 0
-247 -869 -278 0
248 -249 0
248 -251 0
-248 251 249 0
-249 252 0
-249 286 0
249 -286 -252 0
250 286 -252 0
250 -286 252 0
-250 286 252 0
-250 -286 -252 0
-251 283 0
-251 883 0
251 -883 -283 0
252 883 -283 0
252 -883 283 0
-252 883 283 0
-252 -883 -283 0
253 -254 0
253 -724 0
-253 724 254 0
-254 291 0
-254 725 0
254 -725 -291 0
255 725 -291 0
255 -725 291 0
-255 725 291 0
-255 -725 -291 0
256 -257 0
256 -259 0
-256 259 257 0
-257 260 0
-257 296 0
257 -296 -260 0
258 296 -260 0
258 -296 260 0
-258 296 260 0
-258 -296 -260 0
-259 293 0
-259 820 0
259 -820 -293 0
260 820 -293 0
260 -820 293 0
-260 820 293 0
-260 -820 -293 0
261 -262 0
261 -264 0
-261 264 262 0
-262 265 0
-262 301 0
262 -301 -265 0
263 301 -265 0
263 -301 265 0
-263 301 265 0
-263 -301 -265 0
-264 298 0
-264 830 0
264 -830 -298 0
265 830 -298 0
265 -830 298 0
-265 830 298 0
-265 -830 -298 0
266 -267 0
266 -269 0
-266 269 267 0
-267 270 0
-267 306 0
267 -306 -270 0
268 306 -270 0
268 -306 270 0
-268 306 270 0
-268 -306 -270 0
-269 303 0
-269 840 0
269 -840 -303 0
270 840 -303 0
270 -840 303 0
-270 840 303 0
-270 -840 -303 0
271 -272 0
271 -274 0
-271 274 272 0
-272 275 0
-272 311 0
272 -311 -275 0
273 311 -275 0
273 -311 275 0
-273 311 275 0
-273 -311 -275 0
-274 308 0
-274 850 0
274 -850 -308 0
275 850 -308 0
275 -850 308 0
-275 850 308 0
-275 -850 -308 0
276 -277 0
276 -279 0
-276 279 277 0
-277 280 0
-277 316 0
277 -316 -280 0
278 316 -280 0
278 -316 280 0
-278 316 280 0
-278 -316 -280 0
-279 313 0
-279 860 0
279 -860 -313 0
280 860 -313 0
280 -860 313 0
-280 860 313 0
-280 -860 -313 0
281 -282 0
281 -284 0
-281 284 282 0
-282 285 0
-282 321 0
282 -321 -285 0
283 321 -285 0
283 -321 285 0
-283 321 285 0
-283 -321 -285 0
-284 318 0
-284 870 0
284 -870 -318 0
285 870 -318 0
285 -870 318 0
-285 870 318 0
-285 -870 -318 0
286 -287 0
286 -289 0
-286 289 287 0
-287 290 0
-287 326 0
287 -326 -290 0
288 326 -290 0
288 -326 290 0
-288 326 290 0
-288 -326 -290 0
-289 323 0
-289 885 0
289 -885 -323 0
290 885 -323 0
290 -885 323 0
-290 885 323 0
-290 -885 -323 0
291 -292 0
291 -294 0
-291 294 292 0
-292 295 0
-292 774 0
292 -774 -295 0
293 774 -295 0
293 -774 295 0
-293 774 295 0
-293 -774 -295 0
-294 802 0
-294 811 0
294 -811 -802 0
295 811 -802 0
295 -811 802 0
-295 811 802 0
-295 -811 -802 0
296 -297 0
296 -299 0
-296 299 297 0
-297 300 0
-297 777 0
297 -777 -300 0
298 777 -300 0
298 -777 300 0
-298 777 300 0
-298 -777 -300 0
-299 775 0
-299 821 0
299 -821 -775 0
300 821 -775 0
300 -821 775 0
-300 821 775 0
-300 -821 -775 0
301 -302 0
301 -304 0
-301 304 302 0
-302 305 0
-302 780 0
302 -780 -305 0
303 780 -305 0
303 -780 305 0
-303 780 305 0
-303 -780 -305 0
-304 778 0
-304 831 0
304 -831 -778 0
305 831 -778 0
305 -831 778 0
-305 831 778 0
-305 -831 -778 0
306 -307 0
306 -309 0
-306 309 307 0
-307 310 0
-307 783 0
307 -783 -310 0
308 783 -310 0
308 -783 310 0
-308 783 310 0
-308 -783 -310 0
-309 781 0
-309 841 0
309 -841 -781 0
310 841 -781 0
310 -841 781 0
-310 841 781 0
-310 -841 -781 0
311 -312 0
311 -314 0
-311 314 312 0
-312 315 0
-312 786 0
312 -786 -315 0
313 786 -315 0
313 -786 315 0
-313 786 315 0
-313 -786 -315 0
-314 784 0
-314 851 0
314 -851 -784 0
315 851 -784 0
315 -851 784 0
-315 851 784 0
-315 -851 -784 0
316 -317 0
316 -319 0
-316 319 317 0
-317 320 0
-317 789 0
317 -789 -320 0
318 789 -320 0
318 -789 320 0
-318 789 320 0
-318 -789 -320 0
-319 787 0
-319 861 0
319 -861 -787 0
320 861 -787 0
320 -861 787 0
-320 861 787 0
-320 -861 -787 0
321 -322 0
321 -324 0
-321 324 322 0
-322 325 0
-322 792 0
322 -792 -325 0
323 792 -325 0
323 -792 325 0
-323 792 325 0
-323 -792 -325 0
-324 790 0
-324 871 0
324 -871 -790 0
325 871 -790 0
325 -871 790 0
-325 871 790 0
-325 -871 -790 0
326 -327 0
326 -329 0
-326 329 327 0
-327 330 0
-327 794 0
327 -794 -330 0
328 794 -330 0
328 -794 330 0
-328 794 330 0
-328 -794 -330 0
-329 793 0
-329 887 0
329 -887 -793 0
330 887 -793 0
330 -887 793 0
-330 887 793 0
-330 -887 -793 0
331 -332 0
331 -335 0
331 -336 0
331 -337 0
331 -364 0
-331 364 337 336 335 332 0
-332 339 0
-332 350 0
332 -350 -339 0
333 -334 0
333 -361 0
-333 361 334 0
-334 331 0
-334 362 0
334 -362 -331 0
-335 365 0
-335 367 0
335 -367 -365 0
-336 343 0
-336 365 0
336 -365 -343 0
-337 344 0
-337 365 0
337 -365 -344 0
-338 371 0
-338 373 0
338 -373 -371 0
-339 340 0
-339 365 0
339 -365 -340 0
-340 341 0
-340 368 0
340 -368 -341 0
-341 371 0
-341 374 0
341 -374 -371 0
342 -343 0
342 -344 0
342 -347 0
342 -367 0
-342 367 347 344 343 0
-343 368 0
-343 370 0
343 -370 -368 0
-344 338 0
-344 368 0
344 -368 -338 0
345 -338 0
345 -348 0
345 -370 0
-345 370 348 338 0
346 -349 0
346 -373 0
-346 373 349 0
-347 340 0
-347 350 0
347 -350 -340 0
-348 341 0
-348 350 0
348 -350 -341 0
-349 350 0
-349 374 0
349 -374 -350 0
350 -351 0
350 -352 0
350 -353 0
350 -376 0
-350 376 353 352 351 0
-351 377 0
-351 379 0
351 -379 -377 0
-352 356 0
-352 377 0
352 -377 -356 0
-353 357 0
-353 377 0
353 -377 -357 0
-354 383 0
-354 384 0
354 -384 -383 0
355 -356 0
355 -357 0
355 -379 0
-355 379 357 356 0
-356 380 0
-356 382 0
356 -382 -380 0
-357 354 0
-357 380 0
357 -380 -354 0
358 -354 0
358 -382 0
-358 382 354 0
359 431 -333 0
359 -431 333 0
-359 431 333 0
-359 -431 -333 0
360 362 -331 0
360 -362 331 0
-360 362 331 0
-360 -362 -331 0
-361 432 0
-361 795 0
361 -795 -432 0
362 795 -432 0
362 -795 432 0
-362 795 432 0
-362 -795 -432 0
363 365 -342 0
363 -365 342 0
-363 365 342 0
-363 -365 -342 0
-364 433 0
-364 805 0
364 -805 -433 0
365 805 -433 0
365 -805 433 0
-365 805 433 0
-365 -805 -433 0
366 368 -345 0
366 -368 345 0
-366 368 345 0
-366 -368 -345 0
-367 434 0
-367 815 0
367 -815 -434 0
368 815 -434 0
368 -815 434 0
-368 815 434 0
-368 -815 -434 0
369 371 -346 0
369 -371 346 0
-369 371 346 0
-369 -371 -346 0
-370 435 0
-370 825 0
370 -825 -435 0
371 825 -435 0
371 -825 435 0
-371 825 435 0
-371 -825 -435 0
372 374 -350 0
372 -374 350 0
-372 374 350 0
-372 -374 -350 0
-373 438 0
-373 835 0
373 -835 -438 0
374 835 -438 0
374 -835 438 0
-374 835 438 0
-374 -835 -438 0
375 377 -355 0
375 -377 355 0
-375 377 355 0
-375 -377 -355 0
-376 441 0
-376 845 0
376 -845 -441 0
377 845 -441 0
377 -845 441 0
-377 845 441 0
-377 -845 -441 0
378 380 -358 0
378 -380 358 0
-378 380 358 0
-378 -380 -358 0
-379 444 0
-379 855 0
379 -855 -444 0
380 855 -444 0
380 -855 444 0
-380 855 444 0
-380 -855 -444 0
381 384 -383 0
381 -384 383 0
-381 384 383 0
-381 -384 -383 0
-382 447 0
-382 865 0
382 -865 -447 0
383 865 -447 0
383 -865 447 0
-383 865 447 0
-383 -865 -447 0
-384 450 0
-384 875 0
384 -875 -450 0
385 875 -450 0
385 -875 450 0
-385 875 450 0
-385 -875 -450 0
386 -387 0
386 -388 0
386 -392 0
386 -393 0
-386 393 392 388 387 0
-387 395 0
-387 406 0
387 -406 -395 0
-388 390 0
-388 395 0
388 -395 -390 0
389 -390 0
389 -406 0
-389 406 390 0
-390 411 0
-390 422 0
390 -422 -411 0
-391 386 0
-391 502 0
391 -502 -386 0
-392 399 0
-392 503 0
392 -503 -399 0
-393 400 0
-393 503 0
393 -503 -400 0
-394 437 0
-394 439 0
394 -439 -437 0
-395 396 0
-395 503 0
395 -503 -396 0
-396 397 0
-396 504 0
396 -504 -397 0
-397 437 0
-397 440 0
397 -440 -437 0
398 -399 0
398 -400 0
398 -403 0
-398 403 400 399 0
-399 436 0
-399 504 0
399 -504 -436 0
-400 394 0
-400 504 0
400 -504 -394 0
401 -394 0
401 -404 0
401 -436 0
-401 436 404 394 0
402 -405 0
402 -439 0
-402 439 405 0
-403 389 0
-403 396 0
403 -396 -389 0
-404 389 0
-404 397 0
404 -397 -389 0
-405 389 0
-405 440 0
405 -440 -389 0
406 -407 0
406 -408 0
406 -409 0
406 -442 0
-406 442 409 408 407 0
-407 443 0
-407 445 0
407 -445 -443 0
-408 415 0
-408 443 0
408 -443 -415 0
-409 416 0
-409 443 0
409 -443 -416 0
-410 449 0
-410 451 0
410 -451 -449 0
-411 412 0
-411 443 0
411 -443 -412 0
-412 413 0
-412 446 0
412 -446 -413 0
-413 449 0
-413 452 0
413 -452 -449 0
414 -415 0
414 -416 0
414 -419 0
414 -445 0
-414 445 419 416 415 0
-415 446 0
-415 448 0
415 -448 -446 0
-416 410 0
-416 446 0
416 -446 -410 0
417 -410 0
417 -420 0
417 -448 0
-417 448 420 410 0
418 -421 0
418 -451 0
-418 451 421 0
-419 412 0
-419 422 0
419 -422 -412 0
-420 413 0
-420 422 0
420 -422 -413 0
-421 422 0
-421 452 0
421 -452 -422 0
422 -423 0
422 -424 0
422 -425 0
422 -454 0
-422 454 425 424 423 0
-423 455 0
-423 457 0
423 -457 -455 0
-424 428 0
-424 455 0
424 -455 -428 0
-425 429 0
-425 455 0
425 -455 -429 0
-426 461 0
-426 462 0
426 -462 -461 0
427 -428 0
427 -429 0
427 -457 0
-427 457 429 428 0
-428 458 0
-428 460 0
428 -460 -458 0
-429 426 0
-429 458 0
429 -458 -426 0
430 -426 0
430 -460 0
-430 460 426 0
431 469 -391 0
431 -469 391 0
-431 469 391 0
-431 -469 -391 0
432 502 -386 0
432 -502 386 0
-432 502 386 0
-432 -502 -386 0
433 503 -398 0
433 -503 398 0
-433 503 398 0
-433 -503 -398 0
434 504 -401 0
434 -504 401 0
-434 504 401 0
-434 -504 -401 0
435 437 -402 0
435 -437 402 0
-435 437 402 0
-435 -437 -402 0
-436 507 0
-436 535 0
436 -535 -507 0
437 535 -507 0
437 -535 507 0
-437 535 507 0
-437 -535 -507 0
438 440 -389 0
438 -440 389 0
-438 440 389 0
-438 -440 -389 0
-439 510 0
-439 568 0
439 -568 -510 0
440 568 -510 0
440 -568 510 0
-440 568 510 0
-440 -568 -510 0
441 443 -414 0
441 -443 414 0
-441 443 414 0
-441 -443 -414 0
-442 513 0
-442 569 0
442 -569 -513 0
443 569 -513 0
443 -569 513 0
-443 569 513 0
-443 -569 -513 0
444 446 -417 0
444 -446 417 0
-444 446 417 0
-444 -446 -417 0
-445 516 0
-445 570 0
445 -570 -516 0
446 570 -516 0
446 -570 516 0
-446 570 516 0
-446 -570 -516 0
447 449 -418 0
447 -449 418 0
-447 449 418 0
-447 -449 -418 0
-448 519 0
-448 573 0
448 -573 -519 0
449 573 -519 0
449 -573 519 0
-449 573 519 0
-449 -573 -519 0
450 452 -422 0
450 -452 422 0
-450 452 422 0
-450 -452 -422 0
-451 522 0
-451 576 0
451 -576 -522 0
452 576 -522 0
452 -576 522 0
-452 576 522 0
-452 -576 -522 0
453 455 -427 0
453 -455 427 0
-453 455 427 0
-453 -455 -427 0
-454 525 0
-454 579 0
454 -579 -525 0
455 579 -525 0
455 -579 525 0
-455 579 525 0
-455 -579 -525 0
456 458 -430 0
456 -458 430 0
-456 458 430 0
-456 -458 -430 0
-457 529 0
-457 582 0
457 -582 -529 0
458 582 -529 0
458 -582 529 0
-458 582 529 0
-458 -582 -529 0
459 462 -461 0
459 -462 461 0
-459 462 461 0
-459 -462 -461 0
-460 585 0
-460 695 0
460 -695 -585 0
461 695 -585 0
461 -695 585 0
-461 695 585 0
-461 -695 -585 0
-462 588 0
-462 883 0
462 -883 -588 0
463 883 -588 0
463 -883 588 0
-463 883 588 0
-463 -883 -588 0
-464 497 0
-464 515 0
464 -515 -497 0
465 -466 0
465 -467 0
465 -470 0
465 -471 0
465 -472 0
-465 472 471 470 467 466 0
-466 474 0
-466 485 0
466 -485 -474 0
-467 464 0
-467 474 0
467 -474 -464 0
468 -464 0
468 -485 0
-468 485 464 0
-469 465 0
-469 598 0
469 -598 -465 0
-470 505 0
-470 622 0
470 -622 -505 0
-471 478 0
-471 622 0
471 -622 -478 0
-472 479 0
-472 622 0
472 -622 -479 0
-473 509 0
-473 511 0
473 -511 -509 0
-474 475 0
-474 622 0
474 -622 -475 0
-475 476 0
-475 506 0
475 -506 -476 0
-476 509 0
-476 512 0
476 -512 -509 0
477 -478 0
477 -479 0
477 -482 0
477 -505 0
-477 505 482 479 478 0
-478 506 0
-478 508 0
478 -508 -506 0
-479 473 0
-479 506 0
479 -506 -473 0
480 -473 0
480 -483 0
480 -508 0
-480 508 483 473 0
481 -484 0
481 -511 0
-481 511 484 0
-482 468 0
-482 475 0
482 -475 -468 0
-483 468 0
-483 476 0
483 -476 -468 0
-484 468 0
-484 512 0
484 -512 -468 0
485 -486 0
485 -487 0
485 -488 0
485 -514 0
-485 514 488 487 486 0
-486 515 0
-486 517 0
486 -517 -515 0
-487 493 0
-487 515 0
487 -515 -493 0
-488 494 0
-488 515 0
488 -515 -494 0
-489 521 0
-489 523 0
489 -523 -521 0
-490 491 0
-490 518 0
490 -518 -491 0
-491 521 0
-491 524 0
491 -524 -521 0
492 -493 0
492 -494 0
492 -497 0
492 -517 0
-492 517 497 494 493 0
-493 518 0
-493 520 0
493 -520 -518 0
-494 489 0
-494 518 0
494 -518 -489 0
495 -489 0
495 -498 0
495 -520 0
-495 520 498 489 0
496 -499 0
496 -523 0
-496 523 499 0
-497 490 0
-497 500 0
497 -500 -490 0
-498 491 0
-498 500 0
498 -500 -491 0
-499 500 0
-499 524 0
499 -524 -500 0
500 -501 0
500 -526 0
-500 526 501 0
-501 527 0
-501 528 0
501 -528 -527 0
502 598 -465 0
502 -598 465 0
-502 598 465 0
-502 -598 -465 0
503 622 -477 0
503 -622 477 0
-503 622 477 0
-503 -622 -477 0
504 506 -480 0
504 -506 480 0
-504 506 480 0
-504 -506 -480 0
-505 623 0
-505 648 0
505 -648 -623 0
506 648 -623 0
506 -648 623 0
-506 648 623 0
-506 -648 -623 0
507 509 -481 0
507 -509 481 0
-507 509 481 0
-507 -509 -481 0
-508 626 0
-508 672 0
508 -672 -626 0
509 672 -626 0
509 -672 626 0
-509 672 626 0
-509 -672 -626 0
510 512 -468 0
510 -512 468 0
-510 512 468 0
-510 -512 -468 0
-511 629 0
-511 673 0
511 -673 -629 0
512 673 -629 0
512 -673 629 0
-512 673 629 0
-512 -673 -629 0
513 515 -492 0
513 -515 492 0
-513 515 492 0
-513 -515 -492 0
-514 632 0
-514 676 0
514 -676 -632 0
515 676 -632 0
515 -676 632 0
-515 676 632 0
-515 -676 -632 0
516 518 -495 0
516 -518 495 0
-516 518 495 0
-516 -518 -495 0
-517 635 0
-517 679 0
517 -679 -635 0
518 679 -635 0
518 -679 635 0
-518 679 635 0
-518 -679 -635 0
519 521 -496 0
519 -521 496 0
-519 521 496 0
-519 -521 -496 0
-520 638 0
-520 682 0
520 -682 -638 0
521 682 -638 0
521 -682 638 0
-521 682 638 0
-521 -682 -638 0
522 524 -500 0
522 -524 500 0
-522 524 500 0
-522 -524 -500 0
-523 641 0
-523 685 0
523 -685 -641 0
524 685 -641 0
524 -685 641 0
-524 685 641 0
-524 -685 -641 0
525 528 -527 0
525 -528 527 0
-525 528 527 0
-525 -528 -527 0
-526 645 0
-526 688 0
526 -688 -645 0
527 688 -645 0
527 -688 645 0
-527 688 645 0
-527 -688 -645 0
-528 691 0
-528 879 0
528 -879 -691 0
529 879 -691 0
529 -879 691 0
-529 879 691 0
-529 -879 -691 0
-530 563 0
-530 581 0
530 -581 -563 0
531 -532 0
531 -533 0
531 -536 0
531 -537 0
531 -538 0
-531 538 537 536 533 532 0
-532 540 0
-532 551 0
532 -551 -540 0
-533 530 0
-533 540 0
533 -540 -530 0
534 -530 0
534 -551 0
-534 551 530 0
-535 531 0
-535 698 0
535 -698 -531 0
-536 571 0
-536 722 0
536 -722 -571 0
-537 544 0
-537 722 0
537 -722 -544 0
-538 545 0
-538 722 0
538 -722 -545 0
-539 575 0
-539 577 0
539 -577 -575 0
-540 541 0
-540 722 0
540 -722 -541 0
-541 542 0
-541 572 0
541 -572 -542 0
-542 575 0
-542 578 0
542 -578 -575 0
543 -544 0
543 -545 0
543 -548 0
543 -571 0
-543 571 548 545 544 0
-544 572 0
-544 574 0
544 -574 -572 0
-545 539 0
-545 572 0
545 -572 -539 0
546 -539 0
546 -549 0
546 -574 0
-546 574 549 539 0
547 -550 0
547 -577 0
-547 577 550 0
-548 534 0
-548 541 0
548 -541 -534 0
-549 534 0
-549 542 0
549 -542 -534 0
-550 534 0
-550 578 0
550 -578 -534 0
551 -552 0
551 -553 0
551 -554 0
551 -580 0
-551 580 554 553 552 0
-552 581 0
-552 583 0
552 -583 -581 0
-553 559 0
-553 581 0
553 -581 -559 0
-554 560 0
-554 581 0
554 -581 -560 0
-555 587 0
-555 589 0
555 -589 -587 0
-556 557 0
-556 584 0
556 -584 -557 0
-557 587 0
-557 590 0
557 -590 -587 0
558 -559 0
558 -560 0
558 -563 0
558 -583 0
-558 583 563 560 559 0
-559 584 0
-559 586 0
559 -586 -584 0
-560 555 0
-560 584 0
560 -584 -555 0
561 -555 0
561 -564 0
561 -586 0
-561 586 564 555 0
562 -565 0
562 -589 0
-562 589 565 0
-563 556 0
-563 566 0
563 -566 -556 0
-564 557 0
-564 566 0
564 -566 -557 0
-565 566 0
-565 590 0
565 -590 -566 0
566 -567 0
566 -592 0
-566 592 567 0
-567 593 0
-567 594 0
567 -594 -593 0
568 698 -531 0
568 -698 531 0
-568 698 531 0
-568 -698 -531 0
569 722 -543 0
569 -722 543 0
-569 722 543 0
-569 -722 -543 0
570 572 -546 0
570 -572 546 0
-570 572 546 0
-570 -572 -546 0
-571 723 0
-571 748 0
571 -748 -723 0
572 748 -723 0
572 -748 723 0
-572 748 723 0
-572 -748 -723 0
573 575 -547 0
573 -575 547 0
-573 575 547 0
-573 -575 -547 0
-574 726 0
-574 772 0
574 -772 -726 0
575 772 -726 0
575 -772 726 0
-575 772 726 0
-575 -772 -726 0
576 578 -534 0
576 -578 534 0
-576 578 534 0
-576 -578 -534 0
-577 729 0
-577 773 0
577 -773 -729 0
578 773 -729 0
578 -773 729 0
-578 773 729 0
-578 -773 -729 0
579 581 -558 0
579 -581 558 0
-579 581 558 0
-579 -581 -558 0
-580 732 0
-580 776 0
580 -776 -732 0
581 776 -732 0
581 -776 732 0
-581 776 732 0
-581 -776 -732 0
582 584 -561 0
582 -584 561 0
-582 584 561 0
-582 -584 -561 0
-583 735 0
-583 779 0
583 -779 -735 0
584 779 -735 0
584 -779 735 0
-584 779 735 0
-584 -779 -735 0
585 587 -562 0
585 -587 562 0
-585 587 562 0
-585 -587 -562 0
-586 738 0
-586 782 0
586 -782 -738 0
587 782 -738 0
587 -782 738 0
-587 782 738 0
-587 -782 -738 0
588 590 -566 0
588 -590 566 0
-588 590 566 0
-588 -590 -566 0
-589 741 0
-589 785 0
589 -785 -741 0
590 785 -741 0
590 -785 741 0
-590 785 741 0
-590 -785 -741 0
591 594 -593 0
591 -594 593 0
-591 594 593 0
-591 -594 -593 0
-592 745 0
-592 788 0
592 -788 -745 0
593 788 -745 0
593 -788 745 0
-593 788 745 0
-593 -788 -745 0
-594 791 0
-594 887 0
594 -887 -791 0
595 887 -791 0
595 -887 791 0
-595 887 791 0
-595 -887 -791 0
596 -597 0
596 -603 0
596 -604 0
596 -605 0
596 -627 0
-596 627 605 604 603 597 0
-597 614 0
-597 628 0
597 -628 -614 0
598 -599 0
598 -601 0
-598 601 599 0
-599 624 0
-599 796 0
599 -796 -624 0
600 -602 0
600 -624 0
-600 624 602 0
-601 602 0
-601 796 0
601 -796 -602 0
-602 596 0
-602 625 0
602 -625 -596 0
-603 628 0
-603 630 0
603 -630 -628 0
-604 610 0
-604 628 0
604 -628 -610 0
-605 611 0
-605 628 0
605 -628 -611 0
-606 634 0
-606 636 0
606 -636 -634 0
-607 608 0
-607 631 0
607 -631 -608 0
-608 634 0
-608 637 0
608 -637 -634 0
609 -610 0
609 -611 0
609 -614 0
609 -630 0
-609 630 614 611 610 0
-610 631 0
-610 633 0
610 -633 -631 0
-611 606 0
-611 631 0
611 -631 -606 0
612 -606 0
612 -615 0
612 -633 0
-612 633 615 606 0
613 -616 0
613 -636 0
-613 636 616 0
-614 607 0
-614 617 0
614 -617 -607 0
-615 608 0
-615 617 0
615 -617 -608 0
-616 617 0
-616 637 0
616 -637 -617 0
617 -618 0
617 -619 0
617 -639 0
-617 639 619 618 0
-618 640 0
-618 642 0
618 -642 -640 0
-619 621 0
-619 640 0
619 -640 -621 0
620 -621 0
620 -642 0
-620 642 621 0
-621 643 0
-621 644 0
621 -644 -643 0
622 796 -600 0
622 -796 600 0
-622 796 600 0
-622 -796 -600 0
623 625 -596 0
623 -625 596 0
-623 625 596 0
-623 -625 -596 0
-624 797 0
-624 806 0
624 -806 -797 0
625 806 -797 0
625 -806 797 0
-625 806 797 0
-625 -806 -797 0
626 628 -609 0
626 -628 609 0
-626 628 609 0
-626 -628 -609 0
-627 807 0
-627 816 0
627 -816 -807 0
628 816 -807 0
628 -816 807 0
-628 816 807 0
-628 -816 -807 0
629 631 -612 0
629 -631 612 0
-629 631 612 0
-629 -631 -612 0
-630 817 0
-630 826 0
630 -826 -817 0
631 826 -817 0
631 -826 817 0
-631 826 817 0
-631 -826 -817 0
632 634 -613 0
632 -634 613 0
-632 634 613 0
-632 -634 -613 0
-633 827 0
-633 836 0
633 -836 -827 0
634 836 -827 0
634 -836 827 0
-634 836 827 0
-634 -836 -827 0
635 637 -617 0
635 -637 617 0
-635 637 617 0
-635 -637 -617 0
-636 837 0
-636 846 0
636 -846 -837 0
637 846 -837 0
637 -846 837 0
-637 846 837 0
-637 -846 -837 0
638 640 -620 0
638 -640 620 0
-638 640 620 0
-638 -640 -620 0
-639 847 0
-639 856 0
639 -856 -847 0
640 856 -847 0
640 -856 847 0
-640 856 847 0
-640 -856 -847 0
641 644 -643 0
641 -644 643 0
-641 644 643 0
-641 -644 -643 0
-642 857 0
-642 866 0
642 -866 -857 0
643 866 -857 0
643 -866 857 0
-643 866 857 0
-643 -866 -857 0
-644 867 0
-644 877 0
644 -877 -867 0
645 877 -867 0
645 -877 867 0
-645 877 867 0
-645 -877 -867 0
646 -653 0
646 -654 0
646 -655 0
646 -677 0
646 -647 0
-646 647 677 655 654 653 0
-647 664 0
-647 678 0
647 -678 -664 0
648 -649 0
648 -651 0
-648 651 649 0
-649 674 0
-649 798 0
649 -798 -674 0
650 -652 0
650 -674 0
-650 674 652 0
-651 652 0
-651 798 0
651 -798 -652 0
-652 675 0
-652 646 0
652 -646 -675 0
-653 678 0
-653 680 0
653 -680 -678 0
-654 659 0
-654 678 0
654 -678 -659 0
-655 660 0
-655 678 0
655 -678 -660 0
-656 657 0
-656 681 0
656 -681 -657 0
-657 684 0
-657 687 0
657 -687 -684 0
658 -659 0
658 -660 0
658 -664 0
658 -680 0
-658 680 664 660 659 0
-659 681 0
-659 683 0
659 -683 -681 0
-660 662 0
-660 681 0
660 -681 -662 0
661 -662 0
661 -665 0
661 -683 0
-661 683 665 662 0
-662 684 0
-662 686 0
662 -686 -684 0
663 -666 0
663 -686 0
-663 686 666 0
-664 656 0
-664 667 0
664 -667 -656 0
-665 657 0
-665 667 0
665 -667 -657 0
-666 667 0
-666 687 0
666 -687 -667 0
667 -668 0
667 -669 0
667 -689 0
-667 689 669 668 0
-668 690 0
-668 692 0
668 -692 -690 0
-669 671 0
-669 690 0
669 -690 -671 0
670 -671 0
670 -692 0
-670 692 671 0
-671 693 0
-671 694 0
671 -694 -693 0
672 798 -650 0
672 -798 650 0
-672 798 650 0
-672 -798 -650 0
673 646 -675 0
673 -646 675 0
-673 646 675 0
-673 -646 -675 0
-674 799 0
-674 808 0
674 -808 -799 0
675 808 -799 0
675 -808 799 0
-675 808 799 0
-675 -808 -799 0
676 678 -658 0
676 -678 658 0
-676 678 658 0
-676 -678 -658 0
-677 809 0
-677 818 0
677 -818 -809 0
678 818 -809 0
678 -818 809 0
-678 818 809 0
-678 -818 -809 0
679 681 -661 0
679 -681 661 0
-679 681 661 0
-679 -681 -661 0
-680 819 0
-680 828 0
680 -828 -819 0
681 828 -819 0
681 -828 819 0
-681 828 819 0
-681 -828 -819 0
682 684 -663 0
682 -684 663 0
-682 684 663 0
-682 -684 -663 0
-683 829 0
-683 838 0
683 -838 -829 0
684 838 -829 0
684 -838 829 0
-684 838 829 0
-684 -838 -829 0
685 687 -667 0
685 -687 667 0
-685 687 667 0
-685 -687 -667 0
-686 839 0
-686 848 0
686 -848 -839 0
687 848 -839 0
687 -848 839 0
-687 848 839 0
-687 -848 -839 0
688 690 -670 0
688 -690 670 0
-688 690 670 0
-688 -690 -670 0
-689 849 0
-689 858 0
689 -858 -849 0
690 858 -849 0
690 -858 849 0
-690 858 849 0
-690 -858 -849 0
691 694 -693 0
691 -694 693 0
-691 694 693 0
-691 -694 -693 0
-692 859 0
-692 868 0
692 -868 -859 0
693 868 -859 0
693 -868 859 0
-693 868 859 0
-693 -868 -859 0
-694 869 0
-694 881 0
694 -881 -869 0
695 881 -869 0
695 -881 869 0
-695 881 869 0
-695 -881 -869 0
696 -697 0
696 -703 0
696 -704 0
696 -705 0
696 -727 0
-696 727 705 704 703 697 0
-697 714 0
-697 728 0
697 -728 -714 0
698 -699 0
698 -701 0
-698 701 699 0
-699 724 0
-699 800 0
699 -800 -724 0
700 -702 0
700 -724 0
-700 724 702 0
-701 702 0
-701 800 0
701 -800 -702 0
-702 696 0
-702 725 0
702 -725 -696 0
-703 728 0
-703 730 0
703 -730 -728 0
-704 710 0
-704 728 0
704 -728 -710 0
-705 711 0
-705 728 0
705 -728 -711 0
-706 734 0
-706 736 0
706 -736 -734 0
-707 708 0
-707 731 0
707 -731 -708 0
-708 734 0
-708 737 0
708 -737 -734 0
709 -710 0
709 -711 0
709 -714 0
709 -730 0
-709 730 714 711 710 0
-710 731 0
-710 733 0
710 -733 -731 0
-711 706 0
-711 731 0
711 -731 -706 0
712 -706 0
712 -715 0
712 -733 0
-712 733 715 706 0
713 -716 0
713 -736 0
-713 736 716 0
-714 707 0
-714 717 0
714 -717 -707 0
-715 708 0
-715 717 0
715 -717 -708 0
-716 717 0
-716 737 0
716 -737 -717 0
717 -718 0
717 -719 0
717 -739 0
-717 739 719 718 0
-718 740 0
-718 742 0
718 -742 -740 0
-719 721 0
-719 740 0
719 -740 -721 0
720 -721 0
720 -742 0
-720 742 721 0
-721 743 0
-721 744 0
721 -744 -743 0
722 800 -700 0
722 -800 700 0
-722 800 700 0
-722 -800 -700 0
723 725 -696 0
723 -725 696 0
-723 725 696 0
-723 -725 -696 0
-724 801 0
-724 810 0
724 -810 -801 0
725 810 -801 0
725 -810 801 0
-725 810 801 0
-725 -810 -801 0
726 728 -709 0
726 -728 709 0
-726 728 709 0
-726 -728 -709 0
-727 811 0
-727 820 0
727 -820 -811 0
728 820 -811 0
728 -820 811 0
-728 820 811 0
-728 -820 -811 0
729 731 -712 0
729 -731 712 0
-729 731 712 0
-729 -731 -712 0
-730 821 0
-730 830 0
730 -830 -821 0
731 830 -821 0
731 -830 821 0
-731 830 821 0
-731 -830 -821 0
732 734 -713 0
732 -734 713 0
-732 734 713 0
-732 -734 -713 0
-733 831 0
-733 840 0
733 -840 -831 0
734 840 -831 0
734 -840 831 0
-734 840 831 0
-734 -840 -831 0
735 737 -717 0
735 -737 717 0
-735 737 717 0
-735 -737 -717 0
-736 841 0
-736 850 0
736 -850 -841 0
737 850 -841 0
737 -850 841 0
-737 850 841 0
-737 -850 -841 0
738 740 -720 0
738 -740 720 0
-738 740 720 0
-738 -740 -720 0
-739 851 0
-739 860 0
739 -860 -851 0
740 860 -851 0
740 -860 851 0
-740 860 851 0
-740 -860 -851 0
741 744 -743 0
741 -744 743 0
-741 744 743 0
-741 -744 -743 0
-742 861 0
-742 870 0
742 -870 -861 0
743 870 -861 0
743 -870 861 0
-743 870 861 0
-743 -870 -861 0
-744 871 0
-744 885 0
744 -885 -871 0
745 885 -871 0
745 -885 871 0
-745 885 871 0
-745 -885 -871 0
746 -747 0
746 -753 0
746 -754 0
746 -755 0
746 -777 0
-746 777 755 754 753 747 0
-747 764 0
-747 778 0
747 -778 -764 0
748 -749 0
748 -751 0
-748 751 749 0
-749 774 0
-749 802 0
749 -802 -774 0
750 -752 0
750 -774 0
-750 774 752 0
-751 752 0
-751 802 0
751 -802 -752 0
-752 746 0
-752 775 0
752 -775 -746 0
-753 778 0
-753 780 0
753 -780 -778 0
-754 759 0
-754 778 0
754 -778 -759 0
-755 760 0
-755 778 0
755 -778 -760 0
-756 757 0
-756 781 0
756 -781 -757 0
-757 784 0
-757 787 0
757 -787 -784 0
758 -759 0
758 -760 0
758 -764 0
758 -780 0
-758 780 764 760 759 0
-759 781 0
-759 783 0
759 -783 -781 0
-760 762 0
-760 781 0
760 -781 -762 0
761 -762 0
761 -765 0
761 -783 0
-761 783 765 762 0
-762 784 0
-762 786 0
762 -786 -784 0
763 -766 0
763 -786 0
-763 786 766 0
-764 756 0
-764 767 0
764 -767 -756 0
-765 757 0
-765 767 0
765 -767 -757 0
-766 767 0
-766 787 0
766 -787 -767 0
767 -768 0
767 -769 0
767 -789 0
-767 789 769 768 0
-768 790 0
-768 792 0
768 -792 -790 0
-769 771 0
-769 790 0
769 -790 -771 0
770 -771 0
770 -792 0
-770 792 771 0
-771 793 0
-771 794 0
771 -794 -793 0
772 802 -750 0
772 -802 750 0
-772 802 750 0
-772 -802 -750 0
773 775 -746 0
773 -775 746 0
-773 775 746 0
-773 -775 -746 0
-774 803 0
-774 812 0
774 -812 -803 0
775 812 -803 0
775 -812 803 0
-775 812 803 0
-775 -812 -803 0
776 778 -758 0
776 -778 758 0
-776 778 758 0
-776 -778 -758 0
-777 813 0
-777 822 0
777 -822 -813 0
778 822 -813 0
778 -822 813 0
-778 822 813 0
-778 -822 -813 0
779 781 -761 0
779 -781 761 0
-779 781 761 0
-779 -781 -761 0
-780 823 0
-780 832 0
780 -832 -823 0
781 832 -823 0
781 -832 823 0
-781 832 823 0
-781 -832 -823 0
782 784 -763 0
782 -784 763 0
-782 784 763 0
-782 -784 -763 0
-783 833 0
-783 842 0
783 -842 -833 0
784 842 -833 0
784 -842 833 0
-784 842 833 0
-784 -842 -833 0
785 787 -767 0
785 -787 767 0
-785 787 767 0
-785 -787 -767 0
-786 843 0
-786 852 0
786 -852 -843 0
787 852 -843 0
787 -852 843 0
-787 852 843 0
-787 -852 -843 0
788 790 -770 0
788 -790 770 0
-788 790 770 0
-788 -790 -770 0
-789 853 0
-789 862 0
789 -862 -853 0
790 862 -853 0
790 -862 853 0
-790 862 853 0
-790 -862 -853 0
791 794 -793 0
791 -794 793 0
-791 794 793 0
-791 -794 -793 0
-792 863 0
-792 872 0
792 -872 -863 0
793 872 -863 0
793 -872 863 0
-793 872 863 0
-793 -872 -863 0
-794 873 0
-794 889 0
794 -889 -873 0
-795 804 0
-795 876 0
795 -876 -804 0
-796 804 0
-796 878 0
796 -878 -804 0
-797 804 0
-797 880 0
797 -880 -804 0
-798 804 0
-798 882 0
798 -882 -804 0
-799 804 0
-799 884 0
799 -884 -804 0
-800 804 0
-800 886 0
800 -886 -804 0
-801 804 0
-801 888 0
801 -888 -804 0
-802 804 0
-802 890 0
802 -890 -804 0
-803 804 0
-803 891 0
803 -891 -804 0
-805 814 0
-805 876 0
805 -876 -814 0
-806 814 0
-806 878 0
806 -878 -814 0
-807 814 0
-807 880 0
807 -880 -814 0
-808 814 0
-808 882 0
808 -882 -814 0
-809 814 0
-809 884 0
809 -884 -814 0
-810 814 0
-810 886 0
810 -886 -814 0
-811 814 0
-811 888 0
811 -888 -814 0
-812 814 0
-812 890 0
812 -890 -814 0
-813 814 0
-813 891 0
813 -891 -814 0
-815 824 0
-815 876 0
815 -876 -824 0
-816 824 0
-816 878 0
816 -878 -824 0
-817 824 0
-817 880 0
817 -880 -824 0
-818 824 0
-818 882 0
818 -882 -824 0
-819 824 0
-819 884 0
819 -884 -824 0
-820 824 0
-820 886 0
820 -886 -824 0
-821 824 0
-821 888 0
821 -888 -824 0
-822 824 0
-822 890 0
822 -890 -824 0
-823 824 0
-823 891 0
823 -891 -824 0
-825 834 0
-825 876 0
825 -876 -834 0
-826 834 0
-826 878 0
826 -878 -834 0
-827 834 0
-827 880 0
827 -880 -834 0
-828 834 0
-828 882 0
828 -882 -834 0
-829 834 0
-829 884 0
829 -884 -834 0
-830 834 0
-830 886 0
830 -886 -834 0
-831 834 0
-831 888 0
831 -888 -834 0
-832 834 0
-832 890 0
832 -890 -834 0
-833 834 0
-833 891 0
833 -891 -834 0
-835 844 0
-835 876 0
835 -876 -844 0
-836 844 0
-836 878 0
836 -878 -844 0
-837 844 0
-837 880 0
837 -880 -844 0
-838 844 0
-838 882 0
838 -882 -844 0
-839 844 0
-839 884 0
839 -884 -844 0
-840 844 0
-840 886 0
840 -886 -844 0
-841 844 0
-841 888 0
841 -888 -844 0
-842 844 0
-842 890 0
842 -890 -844 0
-843 844 0
-843 891 0
843 -891 -844 0
-845 854 0
-845 876 0
845 -876 -854 0
-846 854 0
-846 878 0
846 -878 -854 0
-847 854 0
-847 880 0
847 -880 -854 0
-848 854 0
-848 882 0
848 -882 -854 0
-849 854 0
-849 884 0
849 -884 -854 0
-850 854 0
-850 886 0
850 -886 -854 0
-851 854 0
-851 888 0
851 -888 -854 0
-852 854 0
-852 890 0
852 -890 -854 0
-853 854 0
-853 891 0
853 -891 -854 0
-855 864 0
-855 876 0
855 -876 -864 0
-856 864 0
-856 878 0
856 -878 -864 0
-857 864 0
-857 880 0
857 -880 -864 0
-858 864 0
-858 882 0
858 -882 -864 0
-859 864 0
-859 884 0
859 -884 -864 0
-860 864 0
-860 886 0
860 -886 -864 0
-861 864 0
-861 888 0
861 -888 -864 0
-862 864 0
-862 890 0
862 -890 -864 0
-863 864 0
-863 891 0
863 -891 -864 0
-865 874 0
-865 876 0
865 -876 -874 0
-866 874 0
-866 878 0
866 -878 -874 0
-867 874 0
-867 880 0
867 -880 -874 0
-868 874 0
-868 882 0
868 -882 -874 0
-869 874 0
-869 884 0
869 -884 -874 0
-870 874 0
-870 886 0
870 -886 -874 0
-871 874 0
-871 888 0
871 -888 -874 0
-872 874 0
-872 890 0
872 -890 -874 0
-873 874 0
-873 891 0
873 -891 -874 0
-875 876 0
-875 892 0
875 -892 -876 0
-877 878 0
-877 892 0
877 -892 -878 0
-879 880 0
-879 892 0
879 -892 -880 0
-881 882 0
-881 892 0
881 -892 -882 0
-883 884 0
-883 892 0
883 -892 -884 0
-885 886 0
-885 892 0
885 -892 -886 0
-887 888 0
-887 892 0
887 -892 -888 0
-889 890 0
-889 892 0
889 -892 -890 0
