NAME          NY
OBJSENSE
    MIN
ROWS
 N  COST
 E  R0
 E  R1
 E  R2
 E  R3
 E  R4
 E  R5
 E  R6
 E  R7
 E  R8
 E  R9
 E  R10
 E  R11
 E  R12
 E  R13
 E  R14
 E  R15
 E  R16
 E  R17
 E  R18
 E  R19
 E  R20
 E  R21
 E  R22
 E  R23
 E  R24
 E  R25
 E  R26
 E  R27
 E  R28
 E  R29
 E  R30
 E  R31
 E  R32
 E  R33
 E  R34
 E  R35
 E  R36
 E  R37
 E  R38
 E  R39
 E  R40
 E  R41
 E  R42
 E  R43
 E  R44
 E  R45
 E  R46
 E  R47
 E  R48
 E  R49
 E  R50
 E  R51
 E  R52
 E  R53
 E  R54
 E  R55
 E  R56
 E  R57
 E  R58
 E  R59
 E  R60
 E  R61
 E  R62
 E  R63
 E  R64
 E  R65
 E  R66
 E  R67
 E  R68
 E  R69
 E  R70
 E  R71
 E  R72
 E  R73
 E  R74
 E  R75
 E  R76
 E  R77
 E  R78
 E  R79
 E  R80
 E  R81
 E  R82
 E  R83
 E  R84
 E  R85
 E  R86
 E  R87
 E  R88
 E  R89
 E  R90
 E  R91
 E  R92
 E  R93
 E  R94
 E  R95
 E  R96
 E  R97
 E  R98
 E  R99
 E  R100
 E  R101
 E  R102
 E  R103
 E  R104
 E  R105
 E  R106
 E  R107
 E  R108
 E  R109
 E  R110
 E  R111
 E  R112
 E  R113
 E  R114
 E  R115
 E  R116
 E  R117
 E  R118
 E  R119
 E  R120
 E  R121
 E  R122
 E  R123
 E  R124
 E  R125
 E  R126
 E  R127
 G  R128
 L  R129
 L  R130
 G  R131
 L  R132
 L  R133
 G  R134
 L  R135
 L  R136
 G  R137
 L  R138
 L  R139
 G  R140
 L  R141
 L  R142
 G  R143
 L  R144
 L  R145
 G  R146
 L  R147
 L  R148
 G  R149
 L  R150
 L  R151
 G  R152
 L  R153
 L  R154
 G  R155
 L  R156
 L  R157
 G  R158
 L  R159
 L  R160
 G  R161
 L  R162
 L  R163
 G  R164
 L  R165
 L  R166
 G  R167
 L  R168
 L  R169
 G  R170
 L  R171
 L  R172
 G  R173
 L  R174
 L  R175
 G  R176
 L  R177
 L  R178
 G  R179
 L  R180
 L  R181
 G  R182
 L  R183
 L  R184
 G  R185
 L  R186
 L  R187
 G  R188
 L  R189
 L  R190
 G  R191
 L  R192
 L  R193
 G  R194
 L  R195
 L  R196
 G  R197
 L  R198
 L  R199
 G  R200
 L  R201
 L  R202
 G  R203
 L  R204
 L  R205
 G  R206
 L  R207
 L  R208
 G  R209
 L  R210
 L  R211
 G  R212
 L  R213
 L  R214
 G  R215
 L  R216
 L  R217
 G  R218
 L  R219
 L  R220
 G  R221
 L  R222
 L  R223
 G  R224
 L  R225
 L  R226
 G  R227
 L  R228
 L  R229
 G  R230
 L  R231
 L  R232
 G  R233
 L  R234
 L  R235
 G  R236
 L  R237
 L  R238
 G  R239
 L  R240
 L  R241
 G  R242
 L  R243
 L  R244
 G  R245
 L  R246
 L  R247
 G  R248
 L  R249
 L  R250
 G  R251
 L  R252
 L  R253
 G  R254
 L  R255
 L  R256
 G  R257
 L  R258
 L  R259
 G  R260
 L  R261
 L  R262
 G  R263
 L  R264
 L  R265
 G  R266
 L  R267
 L  R268
 G  R269
 L  R270
 L  R271
 G  R272
 L  R273
 L  R274
 G  R275
 L  R276
 L  R277
 G  R278
 L  R279
 L  R280
 G  R281
 L  R282
 L  R283
 G  R284
 L  R285
 L  R286
 G  R287
 L  R288
 L  R289
 G  R290
 L  R291
 L  R292
 G  R293
 L  R294
 L  R295
 G  R296
 L  R297
 L  R298
 G  R299
 L  R300
 L  R301
 G  R302
 L  R303
 L  R304
 G  R305
 L  R306
 L  R307
 G  R308
 L  R309
 L  R310
 G  R311
 L  R312
 L  R313
 G  R314
 L  R315
 L  R316
 G  R317
 L  R318
 L  R319
 G  R320
 L  R321
 L  R322
 G  R323
 L  R324
 L  R325
 G  R326
 L  R327
 L  R328
 G  R329
 L  R330
 L  R331
 G  R332
 L  R333
 L  R334
 G  R335
 L  R336
 L  R337
 G  R338
 L  R339
 L  R340
 G  R341
 L  R342
 L  R343
 G  R344
 L  R345
 L  R346
 G  R347
 L  R348
 L  R349
 G  R350
 L  R351
 L  R352
 G  R353
 L  R354
 L  R355
 G  R356
 L  R357
 L  R358
 G  R359
 L  R360
 L  R361
 G  R362
 L  R363
 L  R364
 G  R365
 L  R366
 L  R367
 G  R368
 L  R369
 L  R370
 G  R371
 L  R372
 L  R373
 G  R374
 L  R375
 L  R376
 G  R377
 L  R378
 L  R379
 G  R380
 L  R381
 L  R382
 G  R383
 L  R384
 L  R385
 G  R386
 L  R387
 L  R388
 G  R389
 L  R390
 L  R391
 G  R392
 L  R393
 L  R394
 G  R395
 L  R396
 L  R397
 G  R398
 L  R399
 L  R400
 G  R401
 L  R402
 L  R403
 G  R404
 L  R405
 L  R406
 G  R407
 L  R408
 L  R409
 G  R410
 L  R411
 L  R412
 G  R413
 L  R414
 L  R415
 G  R416
 L  R417
 L  R418
 G  R419
 L  R420
 L  R421
 G  R422
 L  R423
 L  R424
 E  R425
 E  R426
 L  R427
COLUMNS
    X0  COST  0
    X0  R0  -0.6271064281463623046875
    X0  R1  0.22620578110218048095703125
    X0  R2  -0.095755450427532196044921875
    X0  R3  0.3999643623828887939453125
    X0  R4  -0.4603566825389862060546875
    X0  R5  -0.3532859385013580322265625
    X0  R6  0.103970743715763092041015625
    X0  R7  -0.615178406238555908203125
    X0  R8  -0.68186366558074951171875
    X0  R9  0.526819169521331787109375
    X0  R10  0.2474257647991180419921875
    X0  R11  -0.4576836526393890380859375
    X0  R12  0.19579207897186279296875
    X0  R13  -0.276368916034698486328125
    X0  R14  0.16808617115020751953125
    X0  R15  -0.329660236835479736328125
    X0  R16  -0.17486150562763214111328125
    X0  R17  0.472991645336151123046875
    X0  R18  0.113116942346096038818359375
    X0  R19  0.4838545322418212890625
    X0  R20  -0.682757675647735595703125
    X0  R21  0.471358716487884521484375
    X0  R22  -0.8500292301177978515625
    X0  R23  0.348623692989349365234375
    X0  R24  -0.3420804440975189208984375
    X0  R25  -0.274641454219818115234375
    X0  R26  0.4908088743686676025390625
    X0  R27  -0.3403878509998321533203125
    X0  R28  -0.750650107860565185546875
    X0  R29  -0.099884875118732452392578125
    X0  R30  0.406136214733123779296875
    X0  R31  -0.3375628292560577392578125
    X0  R32  0.515748500823974609375
    X0  R33  0.17845587432384490966796875
    X0  R34  -0.4185617864131927490234375
    X0  R35  -0.3526138365268707275390625
    X0  R36  -0.14328365027904510498046875
    X0  R37  0.1867907047271728515625
    X0  R38  -0.077898442745208740234375
    X0  R39  -0.2475154399871826171875
    X0  R40  -0.66676175594329833984375
    X0  R41  0.3095259368419647216796875
    X0  R42  -0.3406242430210113525390625
    X0  R43  -0.33816039562225341796875
    X0  R44  -0.24361602962017059326171875
    X0  R45  0.558743000030517578125
    X0  R46  0.196313679218292236328125
    X0  R47  -0.2253663539886474609375
    X0  R48  0.558957874774932861328125
    X0  R49  -0.102291800081729888916015625
    X0  R50  0.16122792661190032958984375
    X0  R51  -0.08393515646457672119140625
    X0  R52  0.550317585468292236328125
    X0  R53  -0.679304301738739013671875
    X0  R54  -0.2502165734767913818359375
    X0  R55  0.26396846771240234375
    X0  R56  -0.036359034478664398193359375
    X0  R57  0.358638286590576171875
    X0  R58  0.1176335811614990234375
    X0  R59  -0.008393603377044200897216796875
    X0  R60  0.546123087406158447265625
    X0  R61  0.43394911289215087890625
    X0  R62  -0.4195698797702789306640625
    X0  R63  0.2829352915287017822265625
    X0  R64  -0.753267586231231689453125
    X0  R65  -0.3386071026325225830078125
    X0  R66  -0.3783542215824127197265625
    X0  R67  0.21504397690296173095703125
    X0  R68  -0.521936595439910888671875
    X0  R69  -0.16359318792819976806640625
    X0  R70  0.63114643096923828125
    X0  R71  0.255394160747528076171875
    X0  R72  0.15096099674701690673828125
    X0  R73  0.234882295131683349609375
    X0  R74  -0.4136016368865966796875
    X0  R75  -0.16974373161792755126953125
    X0  R76  0.18531958758831024169921875
    X0  R77  0.24837195873260498046875
    X0  R78  0.3333396613597869873046875
    X0  R79  0.2910152375698089599609375
    X0  R80  0.1866740882396697998046875
    X0  R81  0.2888264358043670654296875
    X0  R82  0.12413169443607330322265625
    X0  R83  -0.80466556549072265625
    X0  R84  -0.68414461612701416015625
    X0  R85  0.124007284641265869140625
    X0  R86  0.512400925159454345703125
    X0  R87  -0.12749974429607391357421875
    X0  R88  -0.392003536224365234375
    X0  R89  -0.0776868760585784912109375
    X0  R90  0.3177292346954345703125
    X0  R91  0.4087294638156890869140625
    X0  R92  0.1668612658977508544921875
    X0  R93  0.4021030962467193603515625
    X0  R94  -0.120867498219013214111328125
    X0  R95  0.118544988334178924560546875
    X0  R96  0.098345793783664703369140625
    X0  R97  -0.529017508029937744140625
    X0  R98  0.421579658985137939453125
    X0  R99  0.087963439524173736572265625
    X0  R100  0.4706211388111114501953125
    X0  R101  -0.74632227420806884765625
    X0  R102  -0.3342758715152740478515625
    X0  R103  0.16101352870464324951171875
    X0  R104  0.4721191227436065673828125
    X0  R105  0.08395893871784210205078125
    X0  R106  0.02740113437175750732421875
    X0  R107  -0.21815632283687591552734375
    X0  R108  0.4534347951412200927734375
    X0  R109  -0.839492976665496826171875
    X0  R110  0.0408733002841472625732421875
    X0  R111  0.70285737514495849609375
    X0  R112  0.4817918837070465087890625
    X0  R113  -0.2859062850475311279296875
    X0  R114  -0.0166655294597148895263671875
    X0  R115  0.066420562565326690673828125
    X0  R116  -0.57479894161224365234375
    X0  R117  0.096312366425991058349609375
    X0  R118  -0.13803909718990325927734375
    X0  R119  -0.717637240886688232421875
    X0  R120  -0.766509592533111572265625
    X0  R121  -0.71039903163909912109375
    X0  R122  0.250100433826446533203125
    X0  R123  -0.2923882305622100830078125
    X0  R124  -0.007972575724124908447265625
    X0  R125  0.2984731495380401611328125
    X0  R126  0.1585649549961090087890625
    X0  R127  0.546254694461822509765625
    X1  COST  0
    X1  R0  -0.11904142796993255615234375
    X1  R1  -0.07293613255023956298828125
    X1  R2  -0.2988631427288055419921875
    X1  R3  -0.0236398093402385711669921875
    X1  R4  -0.544748485088348388671875
    X1  R5  0.23815977573394775390625
    X1  R6  0.3734370768070220947265625
    X1  R7  -0.3060680925846099853515625
    X1  R8  -0.491307079792022705078125
    X1  R9  0.19813425838947296142578125
    X1  R10  0.01813500560820102691650390625
    X1  R11  -0.1595609188079833984375
    X1  R12  0.039410658180713653564453125
    X1  R13  0.1737846434116363525390625
    X1  R14  0.39415228366851806640625
    X1  R15  -0.4496719837188720703125
    X1  R16  -0.3871199786663055419921875
    X1  R17  0.01456913910806179046630859375
    X1  R18  -0.032944940030574798583984375
    X1  R19  0.2893569767475128173828125
    X1  R20  -0.276169240474700927734375
    X1  R21  0.342361867427825927734375
    X1  R22  -0.12774111330509185791015625
    X1  R23  0.384296357631683349609375
    X1  R24  -0.1356813013553619384765625
    X1  R25  -0.3098327219486236572265625
    X1  R26  0.2900623977184295654296875
    X1  R27  -0.4092564880847930908203125
    X1  R28  -0.3777301311492919921875
    X1  R29  -0.19016693532466888427734375
    X1  R30  0.1964870989322662353515625
    X1  R31  -0.350878298282623291015625
    X1  R32  -0.2830633223056793212890625
    X1  R33  0.26794111728668212890625
    X1  R34  -0.16899478435516357421875
    X1  R35  -0.611803829669952392578125
    X1  R36  -0.31136548519134521484375
    X1  R37  0.4692673981189727783203125
    X1  R38  -0.087194025516510009765625
    X1  R39  0.15784318745136260986328125
    X1  R40  -0.17632316052913665771484375
    X1  R41  0.5649716854095458984375
    X1  R42  -0.342522203922271728515625
    X1  R43  -0.3421173393726348876953125
    X1  R44  -0.506263315677642822265625
    X1  R45  0.2147781848907470703125
    X1  R46  0.080628447234630584716796875
    X1  R47  -0.19719459116458892822265625
    X1  R48  -0.0209151543676853179931640625
    X1  R49  0.4009254276752471923828125
    X1  R50  0.0960538685321807861328125
    X1  R51  0.12128436565399169921875
    X1  R52  -0.21188731491565704345703125
    X1  R53  -0.638666331768035888671875
    X1  R54  0.488861143589019775390625
    X1  R55  -0.040531717240810394287109375
    X1  R56  0.296285152435302734375
    X1  R57  0.2920108735561370849609375
    X1  R58  0.3100357949733734130859375
    X1  R59  -0.18091161549091339111328125
    X1  R60  0.2749316990375518798828125
    X1  R61  -0.15789385139942169189453125
    X1  R62  -0.300939500331878662109375
    X1  R63  0.481336653232574462890625
    X1  R64  -0.2844531834125518798828125
    X1  R65  -0.36292326450347900390625
    X1  R66  -0.3503833711147308349609375
    X1  R67  0.1993385851383209228515625
    X1  R68  -0.3534221351146697998046875
    X1  R69  0.3346559703350067138671875
    X1  R70  0.02744437195360660552978515625
    X1  R71  0.2183170318603515625
    X1  R72  -0.17507879436016082763671875
    X1  R73  0.247465550899505615234375
    X1  R74  -0.3662497699260711669921875
    X1  R75  0.3226232826709747314453125
    X1  R76  0.382731020450592041015625
    X1  R77  -0.059490941464900970458984375
    X1  R78  0.3506142795085906982421875
    X1  R79  0.20142869651317596435546875
    X1  R80  0.19280652701854705810546875
    X1  R81  0.22689257562160491943359375
    X1  R82  0.3595269024372100830078125
    X1  R83  -0.2531415522098541259765625
    X1  R84  -0.3616368472576141357421875
    X1  R85  0.2703024446964263916015625
    X1  R86  -0.0117613039910793304443359375
    X1  R87  0.2978294193744659423828125
    X1  R88  -0.4301265180110931396484375
    X1  R89  0.4574691355228424072265625
    X1  R90  0.3870634138584136962890625
    X1  R91  0.3975933492183685302734375
    X1  R92  -0.02210788428783416748046875
    X1  R93  0.2629577815532684326171875
    X1  R94  -0.393936216831207275390625
    X1  R95  0.1617952287197113037109375
    X1  R96  0.065124012529850006103515625
    X1  R97  -0.581325054168701171875
    X1  R98  -0.0351693518459796905517578125
    X1  R99  0.1437142789363861083984375
    X1  R100  0.33952224254608154296875
    X1  R101  -0.1848307549953460693359375
    X1  R102  -0.1578264534473419189453125
    X1  R103  -0.17930616438388824462890625
    X1  R104  0.454454004764556884765625
    X1  R105  -0.2952361404895782470703125
    X1  R106  -0.1135320365428924560546875
    X1  R107  -0.18412579596042633056640625
    X1  R108  0.21384836733341217041015625
    X1  R109  -0.18706209957599639892578125
    X1  R110  0.47992956638336181640625
    X1  R111  -0.1889153420925140380859375
    X1  R112  0.04488413035869598388671875
    X1  R113  -0.3397128880023956298828125
    X1  R114  -0.10321305692195892333984375
    X1  R115  0.0884518325328826904296875
    X1  R116  -0.2899512946605682373046875
    X1  R117  -0.133024036884307861328125
    X1  R118  0.2409373819828033447265625
    X1  R119  -0.17440186440944671630859375
    X1  R120  -0.1035523712635040283203125
    X1  R121  -0.21346439421176910400390625
    X1  R122  0.22180187702178955078125
    X1  R123  -0.23822803795337677001953125
    X1  R124  0.4189091622829437255859375
    X1  R125  0.3663801848888397216796875
    X1  R126  0.044245995581150054931640625
    X1  R127  0.2769795954227447509765625
    X2  COST  0
    X2  R0  -0.0578312240540981292724609375
    X2  R1  0.5967891216278076171875
    X2  R2  -0.2999980449676513671875
    X2  R3  0.55626904964447021484375
    X2  R4  -0.102353639900684356689453125
    X2  R5  -0.00705267302691936492919921875
    X2  R6  -0.4031950533390045166015625
    X2  R7  -0.295984804630279541015625
    X2  R8  -0.2765328884124755859375
    X2  R9  0.15237100422382354736328125
    X2  R10  0.0186359249055385589599609375
    X2  R11  -0.108170278370380401611328125
    X2  R12  0.42901766300201416015625
    X2  R13  0.104057945311069488525390625
    X2  R14  0.32377231121063232421875
    X2  R15  0.275943756103515625
    X2  R16  0.15637551248073577880859375
    X2  R17  0.0402435697615146636962890625
    X2  R18  0.1266419887542724609375
    X2  R19  0.0372984744608402252197265625
    X2  R20  -0.3011896908283233642578125
    X2  R21  0.373492717742919921875
    X2  R22  0.15719218552112579345703125
    X2  R23  0.494568765163421630859375
    X2  R24  -0.02219696901738643646240234375
    X2  R25  0.081796586513519287109375
    X2  R26  -0.1259968280792236328125
    X2  R27  -0.2042728960514068603515625
    X2  R28  0.17288969457149505615234375
    X2  R29  0.02162648737430572509765625
    X2  R30  0.1986258029937744140625
    X2  R31  -0.1229985058307647705078125
    X2  R32  0.439414322376251220703125
    X2  R33  0.2355836927890777587890625
    X2  R34  -0.50532639026641845703125
    X2  R35  0.1481591761112213134765625
    X2  R36  -0.23458440601825714111328125
    X2  R37  0.16583406925201416015625
    X2  R38  0.010090530849993228912353515625
    X2  R39  0.00815759412944316864013671875
    X2  R40  0.3940728604793548583984375
    X2  R41  -0.08817256987094879150390625
    X2  R42  -0.24190147221088409423828125
    X2  R43  -0.0250883512198925018310546875
    X2  R44  -0.3208988606929779052734375
    X2  R45  -0.0823048055171966552734375
    X2  R46  0.2506217062473297119140625
    X2  R47  -0.507400989532470703125
    X2  R48  0.097504921257495880126953125
    X2  R49  0.2939510345458984375
    X2  R50  0.2989418506622314453125
    X2  R51  0.250375270843505859375
    X2  R52  0.1426620781421661376953125
    X2  R53  0.042453177273273468017578125
    X2  R54  0.48178732395172119140625
    X2  R55  0.063208900392055511474609375
    X2  R56  0.0622302405536174774169921875
    X2  R57  0.3277749717235565185546875
    X2  R58  -0.2859620153903961181640625
    X2  R59  -0.352383673191070556640625
    X2  R60  0.10388679802417755126953125
    X2  R61  0.3234350979328155517578125
    X2  R62  -0.13357256352901458740234375
    X2  R63  0.48384749889373779296875
    X2  R64  0.17915742099285125732421875
    X2  R65  -0.486567556858062744140625
    X2  R66  -0.2947136461734771728515625
    X2  R67  0.354135215282440185546875
    X2  R68  0.14285646378993988037109375
    X2  R69  0.0683515965938568115234375
    X2  R70  -0.0316642038524150848388671875
    X2  R71  0.260663926601409912109375
    X2  R72  0.3953368365764617919921875
    X2  R73  0.1652868688106536865234375
    X2  R74  0.19610966742038726806640625
    X2  R75  0.031516738235950469970703125
    X2  R76  0.0622874163091182708740234375
    X2  R77  0.4217255413532257080078125
    X2  R78  0.42396247386932373046875
    X2  R79  0.0938338935375213623046875
    X2  R80  0.092262588441371917724609375
    X2  R81  -0.07544402778148651123046875
    X2  R82  -0.0739369690418243408203125
    X2  R83  0.09809587895870208740234375
    X2  R84  -0.259773552417755126953125
    X2  R85  0.0285633839666843414306640625
    X2  R86  0.2805140018463134765625
    X2  R87  0.24923725426197052001953125
    X2  R88  -0.1195447444915771484375
    X2  R89  0.2222993075847625732421875
    X2  R90  -0.20554982125759124755859375
    X2  R91  0.23659537732601165771484375
    X2  R92  0.3865075409412384033203125
    X2  R93  0.380283415317535400390625
    X2  R94  -0.3731306493282318115234375
    X2  R95  0.3090727329254150390625
    X2  R96  0.0407256893813610076904296875
    X2  R97  -0.3760999143123626708984375
    X2  R98  0.2998346984386444091796875
    X2  R99  0.4916884005069732666015625
    X2  R100  0.179877758026123046875
    X2  R101  0.323808848857879638671875
    X2  R102  -0.20223319530487060546875
    X2  R103  -0.15456758439540863037109375
    X2  R104  0.24515821039676666259765625
    X2  R105  -0.00051528424955904483795166015625
    X2  R106  0.3124174773693084716796875
    X2  R107  0.18880097568035125732421875
    X2  R108  0.2312786579132080078125
    X2  R109  0.354762256145477294921875
    X2  R110  0.4032126367092132568359375
    X2  R111  0.2770737111568450927734375
    X2  R112  0.271669089794158935546875
    X2  R113  0.17048667371273040771484375
    X2  R114  0.1513448655605316162109375
    X2  R115  0.063558973371982574462890625
    X2  R116  -0.24752186238765716552734375
    X2  R117  0.046213112771511077880859375
    X2  R118  0.068980492651462554931640625
    X2  R119  0.048614136874675750732421875
    X2  R120  0.32734382152557373046875
    X2  R121  -0.0956709682941436767578125
    X2  R122  0.2855594158172607421875
    X2  R123  -0.2220432460308074951171875
    X2  R124  0.1403667032718658447265625
    X2  R125  0.1759492456912994384765625
    X2  R126  0.120965577661991119384765625
    X2  R127  0.0172015018761157989501953125
    X3  COST  0
    X3  R0  0.170325577259063720703125
    X3  R1  -0.525883853435516357421875
    X3  R2  0.563546359539031982421875
    X3  R3  0.2755777835845947265625
    X3  R4  -0.23387491703033447265625
    X3  R5  0.44161975383758544921875
    X3  R6  0.050134666264057159423828125
    X3  R7  -0.16095913946628570556640625
    X3  R8  0.383592426776885986328125
    X3  R9  -0.06254874169826507568359375
    X3  R10  0.4062938690185546875
    X3  R11  -0.0000167153193615376949310302734375
    X3  R12  0.3835120499134063720703125
    X3  R13  -0.484723985195159912109375
    X3  R14  -0.440060198307037353515625
    X3  R15  -0.042886994779109954833984375
    X3  R16  -0.115839421749114990234375
    X3  R17  -0.23248614370822906494140625
    X3  R18  0.0452870689332485198974609375
    X3  R19  -0.3516241610050201416015625
    X3  R20  0.4982592165470123291015625
    X3  R21  -0.08626593649387359619140625
    X3  R22  -0.4280803203582763671875
    X3  R23  -0.3184535801410675048828125
    X3  R24  -0.68837416172027587890625
    X3  R25  0.156793296337127685546875
    X3  R26  -0.32716095447540283203125
    X3  R27  0.4794423282146453857421875
    X3  R28  0.10576872527599334716796875
    X3  R29  0.22501014173030853271484375
    X3  R30  0.206046283245086669921875
    X3  R31  -0.404165327548980712890625
    X3  R32  -0.374241173267364501953125
    X3  R33  -0.00927668251097202301025390625
    X3  R34  0.2673507630825042724609375
    X3  R35  -0.4013467133045196533203125
    X3  R36  0.62072849273681640625
    X3  R37  0.065179549157619476318359375
    X3  R38  -0.18685354292392730712890625
    X3  R39  -0.124725043773651123046875
    X3  R40  0.1206488907337188720703125
    X3  R41  0.013864330947399139404296875
    X3  R42  0.11614917218685150146484375
    X3  R43  0.13118518888950347900390625
    X3  R44  0.6853888034820556640625
    X3  R45  -0.3368866443634033203125
    X3  R46  -0.067716397345066070556640625
    X3  R47  0.60536634922027587890625
    X3  R48  -0.569061219692230224609375
    X3  R49  -0.0067863278090953826904296875
    X3  R50  -0.53913819789886474609375
    X3  R51  -0.203332722187042236328125
    X3  R52  -0.355657875537872314453125
    X3  R53  -0.293657243251800537109375
    X3  R54  -0.654759466648101806640625
    X3  R55  0.302019178867340087890625
    X3  R56  0.415157794952392578125
    X3  R57  -0.446701347827911376953125
    X3  R58  -0.0480506457388401031494140625
    X3  R59  0.49665927886962890625
    X3  R60  -0.620746791362762451171875
    X3  R61  0.3155060708522796630859375
    X3  R62  0.074847690761089324951171875
    X3  R63  -0.332905232906341552734375
    X3  R64  -0.066764175891876220703125
    X3  R65  0.4628678858280181884765625
    X3  R66  0.3613460063934326171875
    X3  R67  0.3611830770969390869140625
    X3  R68  -0.2389013767242431640625
    X3  R69  0.3462935388088226318359375
    X3  R70  -0.378290235996246337890625
    X3  R71  0.190627574920654296875
    X3  R72  0.27758300304412841796875
    X3  R73  -0.389877378940582275390625
    X3  R74  -0.131763935089111328125
    X3  R75  0.001066722907125949859619140625
    X3  R76  0.1287702620029449462890625
    X3  R77  0.3988094329833984375
    X3  R78  -0.57454073429107666015625
    X3  R79  -0.3778546154499053955078125
    X3  R80  -0.16703583300113677978515625
    X3  R81  -0.2270779907703399658203125
    X3  R82  0.1359177529811859130859375
    X3  R83  -0.3538593351840972900390625
    X3  R84  -0.15893511474132537841796875
    X3  R85  -0.184411227703094482421875
    X3  R86  -0.4508103430271148681640625
    X3  R87  0.383699476718902587890625
    X3  R88  0.57584822177886962890625
    X3  R89  -0.4184827506542205810546875
    X3  R90  0.0491013713181018829345703125
    X3  R91  -0.1958059966564178466796875
    X3  R92  0.4455202519893646240234375
    X3  R93  0.00015176148735918104648590087890625
    X3  R94  0.689164459705352783203125
    X3  R95  0.4556860029697418212890625
    X3  R96  -0.4020004570484161376953125
    X3  R97  0.3276945650577545166015625
    X3  R98  0.167023122310638427734375
    X3  R99  -0.2610707581043243408203125
    X3  R100  -0.3714205920696258544921875
    X3  R101  -0.0303494967520236968994140625
    X3  R102  0.286207973957061767578125
    X3  R103  0.596670567989349365234375
    X3  R104  0.156356036663055419921875
    X3  R105  -0.3896729946136474609375
    X3  R106  0.7165992259979248046875
    X3  R107  -0.379509747028350830078125
    X3  R108  0.007685430347919464111328125
    X3  R109  -0.20930390059947967529296875
    X3  R110  -0.55915081501007080078125
    X3  R111  -0.57717609405517578125
    X3  R112  -0.09164600074291229248046875
    X3  R113  -0.315941154956817626953125
    X3  R114  -0.621251165866851806640625
    X3  R115  -0.06894452869892120361328125
    X3  R116  -0.4952820837497711181640625
    X3  R117  0.41645109653472900390625
    X3  R118  -0.294246256351470947265625
    X3  R119  -0.09917519986629486083984375
    X3  R120  -0.281497776508331298828125
    X3  R121  0.25036323070526123046875
    X3  R122  -0.51270425319671630859375
    X3  R123  0.4619810879230499267578125
    X3  R124  -0.3806333839893341064453125
    X3  R125  -0.47902405261993408203125
    X3  R126  -0.223249018192291259765625
    X3  R127  -0.363470733165740966796875
    X4  COST  0
    X4  R0  -0.1308350265026092529296875
    X4  R1  0.2722088992595672607421875
    X4  R2  0.3986997902393341064453125
    X4  R3  0.32078158855438232421875
    X4  R4  -0.1573479175567626953125
    X4  R5  0.1561324596405029296875
    X4  R6  0.099770195782184600830078125
    X4  R7  0.081916697323322296142578125
    X4  R8  0.086765237152576446533203125
    X4  R9  0.3354683816432952880859375
    X4  R10  0.15114022791385650634765625
    X4  R11  0.0484869070351123809814453125
    X4  R12  0.27816450595855712890625
    X4  R13  -0.391493737697601318359375
    X4  R14  0.13507740199565887451171875
    X4  R15  -0.4118784368038177490234375
    X4  R16  -0.4939400851726531982421875
    X4  R17  0.335598886013031005859375
    X4  R18  0.18632091581821441650390625
    X4  R19  0.203649044036865234375
    X4  R20  0.240127980709075927734375
    X4  R21  0.442633688449859619140625
    X4  R22  0.10730223357677459716796875
    X4  R23  0.4101043045520782470703125
    X4  R24  -0.008137236349284648895263671875
    X4  R25  -0.084054492413997650146484375
    X4  R26  0.0592771954834461212158203125
    X4  R27  0.22836482524871826171875
    X4  R28  -0.24931757152080535888671875
    X4  R29  0.0018416359089314937591552734375
    X4  R30  0.163893043994903564453125
    X4  R31  0.0254299677908420562744140625
    X4  R32  0.4769767224788665771484375
    X4  R33  -0.1069209873676300048828125
    X4  R34  0.12653481960296630859375
    X4  R35  -0.4552709758281707763671875
    X4  R36  0.272136628627777099609375
    X4  R37  -0.2681407034397125244140625
    X4  R38  0.103226147592067718505859375
    X4  R39  -0.297220170497894287109375
    X4  R40  -0.105958111584186553955078125
    X4  R41  -0.4811561107635498046875
    X4  R42  0.1619184017181396484375
    X4  R43  -0.14701855182647705078125
    X4  R44  0.194967448711395263671875
    X4  R45  0.3750399649143218994140625
    X4  R46  -0.0347759425640106201171875
    X4  R47  0.2787909805774688720703125
    X4  R48  0.369608581066131591796875
    X4  R49  -0.1501004993915557861328125
    X4  R50  0.0726827085018157958984375
    X4  R51  -0.013972519896924495697021484375
    X4  R52  0.5278637409210205078125
    X4  R53  -0.3144952952861785888671875
    X4  R54  0.275450170040130615234375
    X4  R55  0.287870347499847412109375
    X4  R56  0.11400298774242401123046875
    X4  R57  0.2582027912139892578125
    X4  R58  -0.073124326765537261962890625
    X4  R59  0.4276866912841796875
    X4  R60  0.265549242496490478515625
    X4  R61  -0.011906109750270843505859375
    X4  R62  -0.03580741584300994873046875
    X4  R63  0.24865205585956573486328125
    X4  R64  -0.02718036063015460968017578125
    X4  R65  0.19587843120098114013671875
    X4  R66  0.08090652525424957275390625
    X4  R67  0.345534741878509521484375
    X4  R68  -0.3789714276790618896484375
    X4  R69  0.15950669348239898681640625
    X4  R70  0.50610792636871337890625
    X4  R71  0.084875606000423431396484375
    X4  R72  0.04031889140605926513671875
    X4  R73  -0.165048062801361083984375
    X4  R74  -0.14123009145259857177734375
    X4  R75  -0.21315144002437591552734375
    X4  R76  0.1295859813690185546875
    X4  R77  0.26323449611663818359375
    X4  R78  0.158122599124908447265625
    X4  R79  -0.07182173430919647216796875
    X4  R80  0.4713601768016815185546875
    X4  R81  0.0397344715893268585205078125
    X4  R82  -0.015723966062068939208984375
    X4  R83  -0.22554095089435577392578125
    X4  R84  0.106638692319393157958984375
    X4  R85  -0.07572232186794281005859375
    X4  R86  0.32485878467559814453125
    X4  R87  -0.100804246962070465087890625
    X4  R88  -0.03482221066951751708984375
    X4  R89  0.0365046449005603790283203125
    X4  R90  -0.2842001616954803466796875
    X4  R91  0.045190341770648956298828125
    X4  R92  -0.1299774348735809326171875
    X4  R93  0.40035331249237060546875
    X4  R94  0.3178041279315948486328125
    X4  R95  0.097175501286983489990234375
    X4  R96  -0.14606885612010955810546875
    X4  R97  0.19192202389240264892578125
    X4  R98  0.4270579516887664794921875
    X4  R99  -0.12452624738216400146484375
    X4  R100  0.3064914047718048095703125
    X4  R101  0.083653770387172698974609375
    X4  R102  0.301680862903594970703125
    X4  R103  0.4295089542865753173828125
    X4  R104  0.00255979853682219982147216796875
    X4  R105  -0.45365142822265625
    X4  R106  -0.067064262926578521728515625
    X4  R107  -0.257525920867919921875
    X4  R108  0.459609210491180419921875
    X4  R109  -0.087777800858020782470703125
    X4  R110  0.258040487766265869140625
    X4  R111  0.4596295058727264404296875
    X4  R112  0.354810535907745361328125
    X4  R113  0.02712780423462390899658203125
    X4  R114  0.09392310678958892822265625
    X4  R115  -0.0154693238437175750732421875
    X4  R116  0.102680064737796783447265625
    X4  R117  -0.2989695966243743896484375
    X4  R118  -0.4377143383026123046875
    X4  R119  -0.0379526801407337188720703125
    X4  R120  -0.040209017693996429443359375
    X4  R121  -0.0439218021929264068603515625
    X4  R122  0.4427454769611358642578125
    X4  R123  0.0880438983440399169921875
    X4  R124  0.3114063739776611328125
    X4  R125  0.275216162204742431640625
    X4  R126  -0.01756871677935123443603515625
    X4  R127  0.279099166393280029296875
    X5  COST  0
    X5  R0  0.22543786466121673583984375
    X5  R1  0.6119759082794189453125
    X5  R2  -0.418120205402374267578125
    X5  R3  0.20949618518352508544921875
    X5  R4  -0.619625866413116455078125
    X5  R5  -0.02693050540983676910400390625
    X5  R6  -0.330990135669708251953125
    X5  R7  -0.339995682239532470703125
    X5  R8  -0.3568885326385498046875
    X5  R9  -0.055451206862926483154296875
    X5  R10  -0.550821244716644287109375
    X5  R11  -0.0313558280467987060546875
    X5  R12  0.36889779567718505859375
    X5  R13  0.18830515444278717041015625
    X5  R14  0.15630853176116943359375
    X5  R15  0.0258247368037700653076171875
    X5  R16  -0.112199984490871429443359375
    X5  R17  0.19369216263294219970703125
    X5  R18  -0.595748960971832275390625
    X5  R19  0.2922097146511077880859375
    X5  R20  0.08982835710048675537109375
    X5  R21  0.4484039843082427978515625
    X5  R22  0.033203661441802978515625
    X5  R23  0.0539343357086181640625
    X5  R24  -0.026918642222881317138671875
    X5  R25  -0.0288434661924839019775390625
    X5  R26  -0.16803646087646484375
    X5  R27  -0.5405986309051513671875
    X5  R28  -0.19277916848659515380859375
    X5  R29  -0.341501295566558837890625
    X5  R30  0.0353788174688816070556640625
    X5  R31  -0.3264630734920501708984375
    X5  R32  0.4992366135120391845703125
    X5  R33  0.19544322788715362548828125
    X5  R34  -0.2520630061626434326171875
    X5  R35  -0.3027062118053436279296875
    X5  R36  -0.1508379280567169189453125
    X5  R37  0.500283181667327880859375
    X5  R38  0.12829600274562835693359375
    X5  R39  0.537676751613616943359375
    X5  R40  0.029418669641017913818359375
    X5  R41  -0.063383586704730987548828125
    X5  R42  -0.4618128240108489990234375
    X5  R43  -0.1406136453151702880859375
    X5  R44  -0.269839465618133544921875
    X5  R45  -0.4610238969326019287109375
    X5  R46  0.643110692501068115234375
    X5  R47  -0.4866617619991302490234375
    X5  R48  -0.0379421897232532501220703125
    X5  R49  0.321804344654083251953125
    X5  R50  0.4270577728748321533203125
    X5  R51  -0.310703575611114501953125
    X5  R52  -0.15810663998126983642578125
    X5  R53  -0.450050652027130126953125
    X5  R54  0.3485051691532135009765625
    X5  R55  -0.417191803455352783203125
    X5  R56  -0.54691278934478759765625
    X5  R57  0.30993592739105224609375
    X5  R58  0.3462155163288116455078125
    X5  R59  -0.4829845130443572998046875
    X5  R60  0.095222093164920806884765625
    X5  R61  0.599152505397796630859375
    X5  R62  -0.19289992749691009521484375
    X5  R63  0.32883012294769287109375
    X5  R64  -0.1452637612819671630859375
    X5  R65  -0.4095161259174346923828125
    X5  R66  -0.119429819285869598388671875
    X5  R67  0.24780882894992828369140625
    X5  R68  0.10715584456920623779296875
    X5  R69  -0.17304320633411407470703125
    X5  R70  -0.4021597206592559814453125
    X5  R71  -0.092087008059024810791015625
    X5  R72  0.681635797023773193359375
    X5  R73  0.326004803180694580078125
    X5  R74  -0.16346256434917449951171875
    X5  R75  0.27321147918701171875
    X5  R76  0.58095991611480712890625
    X5  R77  0.530920445919036865234375
    X5  R78  0.52994954586029052734375
    X5  R79  0.079708747565746307373046875
    X5  R80  -0.61519420146942138671875
    X5  R81  -0.3669884502887725830078125
    X5  R82  -0.1977380216121673583984375
    X5  R83  0.037681855261325836181640625
    X5  R84  -0.098410852253437042236328125
    X5  R85  0.328503191471099853515625
    X5  R86  -0.481734693050384521484375
    X5  R87  0.3440616428852081298828125
    X5  R88  -0.404960215091705322265625
    X5  R89  -0.391086518764495849609375
    X5  R90  0.4087611734867095947265625
    X5  R91  0.3361517488956451416015625
    X5  R92  0.664842069149017333984375
    X5  R93  -0.4692512452602386474609375
    X5  R94  -0.378318488597869873046875
    X5  R95  0.4434365332126617431640625
    X5  R96  0.17053709924221038818359375
    X5  R97  -0.2767222821712493896484375
    X5  R98  -0.060568727552890777587890625
    X5  R99  0.738110363483428955078125
    X5  R100  0.04357661306858062744140625
    X5  R101  0.107051096856594085693359375
    X5  R102  -0.02907303161919116973876953125
    X5  R103  -0.4361471831798553466796875
    X5  R104  0.33434927463531494140625
    X5  R105  0.1429252922534942626953125
    X5  R106  0.703217685222625732421875
    X5  R107  0.0913551747798919677734375
    X5  R108  0.097101442515850067138671875
    X5  R109  0.036598972976207733154296875
    X5  R110  0.4221694171428680419921875
    X5  R111  -0.19278453290462493896484375
    X5  R112  -0.3470220863819122314453125
    X5  R113  -0.247771918773651123046875
    X5  R114  0.20572908222675323486328125
    X5  R115  0.495943367481231689453125
    X5  R116  -0.2150177657604217529296875
    X5  R117  0.497360527515411376953125
    X5  R118  0.3438465297222137451171875
    X5  R119  -0.0966639220714569091796875
    X5  R120  0.0480720736086368560791015625
    X5  R121  0.141796171665191650390625
    X5  R122  0.1747511327266693115234375
    X5  R123  -0.4101279675960540771484375
    X5  R124  -0.02463768608868122100830078125
    X5  R125  -0.509343445301055908203125
    X5  R126  0.15489603579044342041015625
    X5  R127  0.15610010921955108642578125
    X6  COST  0
    X6  R0  0.15429528057575225830078125
    X6  R1  0.4206621348857879638671875
    X6  R2  0.3583854734897613525390625
    X6  R3  -0.13831742107868194580078125
    X6  R4  0.43555152416229248046875
    X6  R5  -0.093876421451568603515625
    X6  R6  -0.17493797838687896728515625
    X6  R7  -0.30085086822509765625
    X6  R8  0.4129788577556610107421875
    X6  R9  -0.3461369574069976806640625
    X6  R10  0.195763289928436279296875
    X6  R11  -0.283228814601898193359375
    X6  R12  -0.002474957145750522613525390625
    X6  R13  0.261764585971832275390625
    X6  R14  0.19507057964801788330078125
    X6  R15  -0.51097238063812255859375
    X6  R16  -0.50244581699371337890625
    X6  R17  0.0591522753238677978515625
    X6  R18  -0.06643043458461761474609375
    X6  R19  -0.08959138393402099609375
    X6  R20  -0.0159536935389041900634765625
    X6  R21  0.1663205921649932861328125
    X6  R22  -0.4722583591938018798828125
    X6  R23  0.17059020698070526123046875
    X6  R24  -0.2210569083690643310546875
    X6  R25  -0.641419589519500732421875
    X6  R26  -0.2433401048183441162109375
    X6  R27  0.269832313060760498046875
    X6  R28  -0.084642700850963592529296875
    X6  R29  -0.494609832763671875
    X6  R30  -0.3339246213436126708984375
    X6  R31  -0.019054256379604339599609375
    X6  R32  -0.079701952636241912841796875
    X6  R33  -0.175074875354766845703125
    X6  R34  0.21252252161502838134765625
    X6  R35  0.127600014209747314453125
    X6  R36  0.456371307373046875
    X6  R37  -0.11328093707561492919921875
    X6  R38  -0.410309255123138427734375
    X6  R39  0.3466351032257080078125
    X6  R40  -0.63609874248504638671875
    X6  R41  -0.2883363664150238037109375
    X6  R42  -0.041288666427135467529296875
    X6  R43  -0.031172700226306915283203125
    X6  R44  0.684961795806884765625
    X6  R45  -0.2896934449672698974609375
    X6  R46  0.29497396945953369140625
    X6  R47  0.61441028118133544921875
    X6  R48  0.009782674722373485565185546875
    X6  R49  0.588982105255126953125
    X6  R50  0.2266340553760528564453125
    X6  R51  -0.16336719691753387451171875
    X6  R52  -0.018838264048099517822265625
    X6  R53  -0.1295972168445587158203125
    X6  R54  -0.4733386933803558349609375
    X6  R55  0.20371668040752410888671875
    X6  R56  0.3561946451663970947265625
    X6  R57  0.043423354625701904296875
    X6  R58  -0.23185980319976806640625
    X6  R59  0.67634832859039306640625
    X6  R60  -0.113104440271854400634765625
    X6  R61  -0.4361034929752349853515625
    X6  R62  -0.08738984167575836181640625
    X6  R63  -0.09827606379985809326171875
    X6  R64  -0.3570682108402252197265625
    X6  R65  0.532962262630462646484375
    X6  R66  0.2586831748485565185546875
    X6  R67  -0.079046420753002166748046875
    X6  R68  -0.3722788393497467041015625
    X6  R69  0.1214902698993682861328125
    X6  R70  -0.423425257205963134765625
    X6  R71  -0.16839037835597991943359375
    X6  R72  -0.64558660984039306640625
    X6  R73  -0.10697554051876068115234375
    X6  R74  -0.668447077274322509765625
    X6  R75  0.0589940249919891357421875
    X6  R76  -0.186124324798583984375
    X6  R77  -0.2791527807712554931640625
    X6  R78  -0.10854335129261016845703125
    X6  R79  -0.3642032444477081298828125
    X6  R80  0.22533531486988067626953125
    X6  R81  -0.35836470127105712890625
    X6  R82  -0.2732225954532623291015625
    X6  R83  -0.0522664971649646759033203125
    X6  R84  -0.488910377025604248046875
    X6  R85  -0.539974272251129150390625
    X6  R86  0.0070090875960886478424072265625
    X6  R87  0.351848304271697998046875
    X6  R88  0.0446803681552410125732421875
    X6  R89  0.274233043193817138671875
    X6  R90  -0.13573811948299407958984375
    X6  R91  0.08448161184787750244140625
    X6  R92  -0.4992152154445648193359375
    X6  R93  -0.07508061826229095458984375
    X6  R94  0.753264129161834716796875
    X6  R95  -0.2482502162456512451171875
    X6  R96  -0.2651492655277252197265625
    X6  R97  0.621346414089202880859375
    X6  R98  0.114839397370815277099609375
    X6  R99  0.3815968930721282958984375
    X6  R100  0.0260235033929347991943359375
    X6  R101  -0.56683504581451416015625
    X6  R102  -0.20557057857513427734375
    X6  R103  0.282596647739410400390625
    X6  R104  -0.2177907526493072509765625
    X6  R105  -0.13200525939464569091796875
    X6  R106  -0.55164945125579833984375
    X6  R107  -0.32161962985992431640625
    X6  R108  0.24376247823238372802734375
    X6  R109  -0.6009480953216552734375
    X6  R110  -0.2938832938671112060546875
    X6  R111  -0.20020873844623565673828125
    X6  R112  0.09183357656002044677734375
    X6  R113  -0.85059249401092529296875
    X6  R114  0.22830255329608917236328125
    X6  R115  -0.300904214382171630859375
    X6  R116  0.111885569989681243896484375
    X6  R117  -0.64405667781829833984375
    X6  R118  -0.25397169589996337890625
    X6  R119  -0.0541725791990756988525390625
    X6  R120  -0.4832725822925567626953125
    X6  R121  0.1950490772724151611328125
    X6  R122  0.0663187205791473388671875
    X6  R123  0.476190984249114990234375
    X6  R124  0.2077653110027313232421875
    X6  R125  -0.025168113410472869873046875
    X6  R126  0.02730895578861236572265625
    X6  R127  -0.071498192846775054931640625
    X7  COST  0
    X7  R0  -0.358827531337738037109375
    X7  R1  -0.18803922832012176513671875
    X7  R2  -0.04404617846012115478515625
    X7  R3  0.16399659216403961181640625
    X7  R4  0.357728481292724609375
    X7  R5  0.379590213298797607421875
    X7  R6  -0.3177715241909027099609375
    X7  R7  -0.2829571664333343505859375
    X7  R8  0.0479245968163013458251953125
    X7  R9  -0.09431727230548858642578125
    X7  R10  0.2211453914642333984375
    X7  R11  -0.1782767772674560546875
    X7  R12  0.300443947315216064453125
    X7  R13  0.3327266275882720947265625
    X7  R14  -0.38406836986541748046875
    X7  R15  -0.095393784344196319580078125
    X7  R16  -0.11640511453151702880859375
    X7  R17  -0.0507457666099071502685546875
    X7  R18  -0.13024294376373291015625
    X7  R19  -0.11471641063690185546875
    X7  R20  -0.063291065394878387451171875
    X7  R21  -0.4277019798755645751953125
    X7  R22  -0.521570026874542236328125
    X7  R23  -0.4315768182277679443359375
    X7  R24  -0.1737648546695709228515625
    X7  R25  -0.29802834987640380859375
    X7  R26  -0.0609373934566974639892578125
    X7  R27  0.14644502103328704833984375
    X7  R28  -0.21340395510196685791015625
    X7  R29  0.105281852185726165771484375
    X7  R30  -0.08142173290252685546875
    X7  R31  -0.166832029819488525390625
    X7  R32  -0.4629273712635040283203125
    X7  R33  0.14703972637653350830078125
    X7  R34  -0.10930030047893524169921875
    X7  R35  0.500042498111724853515625
    X7  R36  0.15435002744197845458984375
    X7  R37  -0.3271300792694091796875
    X7  R38  -0.12629093229770660400390625
    X7  R39  -0.0145409293472766876220703125
    X7  R40  -0.4593984186649322509765625
    X7  R41  0.215360164642333984375
    X7  R42  -0.02280505932867527008056640625
    X7  R43  0.135750293731689453125
    X7  R44  -0.0288652740418910980224609375
    X7  R45  -0.241544425487518310546875
    X7  R46  0.069573678076267242431640625
    X7  R47  0.115121610462665557861328125
    X7  R48  -0.095635198056697845458984375
    X7  R49  -0.714849054813385009765625
    X7  R50  -0.33168888092041015625
    X7  R51  0.286231100559234619140625
    X7  R52  -0.1461787521839141845703125
    X7  R53  0.008479855023324489593505859375
    X7  R54  -0.7085478305816650390625
    X7  R55  0.4200721681118011474609375
    X7  R56  -0.4214622974395751953125
    X7  R57  -0.17360992729663848876953125
    X7  R58  -0.589042365550994873046875
    X7  R59  0.115619756281375885009765625
    X7  R60  -0.3036344051361083984375
    X7  R61  0.25458967685699462890625
    X7  R62  -0.0370885543525218963623046875
    X7  R63  -0.3820585906505584716796875
    X7  R64  -0.3147448003292083740234375
    X7  R65  0.05756299197673797607421875
    X7  R66  -0.0589938201010227203369140625
    X7  R67  0.3155004680156707763671875
    X7  R68  -0.193815529346466064453125
    X7  R69  -0.4946376979351043701171875
    X7  R70  -0.3481609821319580078125
    X7  R71  0.207080662250518798828125
    X7  R72  0.4224105179309844970703125
    X7  R73  -0.0475064478814601898193359375
    X7  R74  -0.3102838695049285888671875
    X7  R75  -0.20352943241596221923828125
    X7  R76  -0.0056697134859859943389892578125
    X7  R77  0.2160926759243011474609375
    X7  R78  0.070599488914012908935546875
    X7  R79  0.2740767300128936767578125
    X7  R80  -0.21515651047229766845703125
    X7  R81  0.118989609181880950927734375
    X7  R82  0.165362894535064697265625
    X7  R83  -0.44604980945587158203125
    X7  R84  -0.534125864505767822265625
    X7  R85  0.2587794363498687744140625
    X7  R86  0.0162908472120761871337890625
    X7  R87  -0.0362372733652591705322265625
    X7  R88  0.271960735321044921875
    X7  R89  -0.3265199363231658935546875
    X7  R90  -0.3548333942890167236328125
    X7  R91  -0.100169546902179718017578125
    X7  R92  0.443373024463653564453125
    X7  R93  0.061291106045246124267578125
    X7  R94  0.033811092376708984375
    X7  R95  0.08305884897708892822265625
    X7  R96  -0.2709512412548065185546875
    X7  R97  -0.0503705628216266632080078125
    X7  R98  -0.039538942277431488037109375
    X7  R99  0.16856314241886138916015625
    X7  R100  -0.2622375190258026123046875
    X7  R101  -0.3806934654712677001953125
    X7  R102  -0.1308875381946563720703125
    X7  R103  0.01535014249384403228759765625
    X7  R104  -0.19098937511444091796875
    X7  R105  0.25835812091827392578125
    X7  R106  0.4341945648193359375
    X7  R107  -0.152347981929779052734375
    X7  R108  -0.3725689351558685302734375
    X7  R109  -0.3927716314792633056640625
    X7  R110  -0.566215097904205322265625
    X7  R111  -0.20643298327922821044921875
    X7  R112  0.33710634708404541015625
    X7  R113  -0.2861403524875640869140625
    X7  R114  -0.432306826114654541015625
    X7  R115  -0.15337736904621124267578125
    X7  R116  -0.3491869270801544189453125
    X7  R117  0.2334586083889007568359375
    X7  R118  0.16220821440219879150390625
    X7  R119  -0.402088224887847900390625
    X7  R120  -0.4847916066646575927734375
    X7  R121  -0.3221979439258575439453125
    X7  R122  -0.25900638103485107421875
    X7  R123  0.01314199902117252349853515625
    X7  R124  0.23651404678821563720703125
    X7  R125  0.064777947962284088134765625
    X7  R126  0.1953166425228118896484375
    X7  R127  -0.4785856902599334716796875
    X8  COST  0
    X8  R0  -0.768784344196319580078125
    X8  R1  0.55769956111907958984375
    X8  R2  0.125669002532958984375
    X8  R3  -0.08628642559051513671875
    X8  R4  0.355083465576171875
    X8  R5  0.397466480731964111328125
    X8  R6  -0.3237011134624481201171875
    X8  R7  0.281435549259185791015625
    X8  R8  -0.5099437236785888671875
    X8  R9  -0.324931204319000244140625
    X8  R10  0.3453189432621002197265625
    X8  R11  0.101681657135486602783203125
    X8  R12  0.14889933168888092041015625
    X8  R13  -0.16188800334930419921875
    X8  R14  -0.23770630359649658203125
    X8  R15  -0.386211574077606201171875
    X8  R16  -0.62067210674285888671875
    X8  R17  -0.1749508380889892578125
    X8  R18  -0.072173416614532470703125
    X8  R19  -0.55003178119659423828125
    X8  R20  -0.45964539051055908203125
    X8  R21  0.3540985882282257080078125
    X8  R22  -0.4000576436519622802734375
    X8  R23  -0.18531908094882965087890625
    X8  R24  0.1877040565013885498046875
    X8  R25  0.078335575759410858154296875
    X8  R26  -0.594185411930084228515625
    X8  R27  0.51121723651885986328125
    X8  R28  -0.48725497722625732421875
    X8  R29  0.626059055328369140625
    X8  R30  -0.509400069713592529296875
    X8  R31  -0.02571406029164791107177734375
    X8  R32  -0.0917517244815826416015625
    X8  R33  -0.03929196298122406005859375
    X8  R34  -0.4824353754520416259765625
    X8  R35  0.0571582727134227752685546875
    X8  R36  -0.3641364872455596923828125
    X8  R37  -0.17853391170501708984375
    X8  R38  -0.100487492978572845458984375
    X8  R39  0.431188762187957763671875
    X8  R40  0.00336747313849627971649169921875
    X8  R41  -0.64749181270599365234375
    X8  R42  0.38932704925537109375
    X8  R43  0.079365141689777374267578125
    X8  R44  -0.18256962299346923828125
    X8  R45  -0.3313190042972564697265625
    X8  R46  0.4201551973819732666015625
    X8  R47  0.18145014345645904541015625
    X8  R48  -0.24468992650508880615234375
    X8  R49  0.353668987751007080078125
    X8  R50  -0.1972939670085906982421875
    X8  R51  -0.1996584236621856689453125
    X8  R52  -0.036274097859859466552734375
    X8  R53  0.2701809406280517578125
    X8  R54  0.01065130345523357391357421875
    X8  R55  0.546154677867889404296875
    X8  R56  0.309582769870758056640625
    X8  R57  0.2584012448787689208984375
    X8  R58  -0.3374948799610137939453125
    X8  R59  0.076354913413524627685546875
    X8  R60  -0.0999129712581634521484375
    X8  R61  0.407939255237579345703125
    X8  R62  0.18488363921642303466796875
    X8  R63  0.02211760915815830230712890625
    X8  R64  -0.3283201158046722412109375
    X8  R65  -0.30885565280914306640625
    X8  R66  -0.57338774204254150390625
    X8  R67  0.3437266647815704345703125
    X8  R68  -0.2536170184612274169921875
    X8  R69  0.3327167928218841552734375
    X8  R70  -0.515350341796875
    X8  R71  -0.22779341042041778564453125
    X8  R72  -0.0247364230453968048095703125
    X8  R73  -0.074756987392902374267578125
    X8  R74  0.269421875476837158203125
    X8  R75  -0.3583445250988006591796875
    X8  R76  0.22731848061084747314453125
    X8  R77  0.3183197081089019775390625
    X8  R78  0.01220216788351535797119140625
    X8  R79  0.19153968989849090576171875
    X8  R80  0.113682217895984649658203125
    X8  R81  -0.55548763275146484375
    X8  R82  -0.111016400158405303955078125
    X8  R83  -0.443348705768585205078125
    X8  R84  -0.14453040063381195068359375
    X8  R85  -0.408716976642608642578125
    X8  R86  0.24765296280384063720703125
    X8  R87  0.505029141902923583984375
    X8  R88  -0.014711282216012477874755859375
    X8  R89  0.2868576943874359130859375
    X8  R90  -0.45505774021148681640625
    X8  R91  -0.2967625558376312255859375
    X8  R92  0.22873808443546295166015625
    X8  R93  0.0076346010901033878326416015625
    X8  R94  -0.265945851802825927734375
    X8  R95  0.290570318698883056640625
    X8  R96  -0.5350940227508544921875
    X8  R97  -0.353517472743988037109375
    X8  R98  0.3216182887554168701171875
    X8  R99  0.2977770864963531494140625
    X8  R100  0.0489155016839504241943359375
    X8  R101  -0.10874985158443450927734375
    X8  R102  0.0851586163043975830078125
    X8  R103  0.637615203857421875
    X8  R104  -0.3222796618938446044921875
    X8  R105  -0.4444973170757293701171875
    X8  R106  0.4410631656646728515625
    X8  R107  -0.3048268854618072509765625
    X8  R108  0.4124478399753570556640625
    X8  R109  -0.21636681258678436279296875
    X8  R110  0.2984981536865234375
    X8  R111  -0.3939968049526214599609375
    X8  R112  0.09007380902767181396484375
    X8  R113  0.699352204799652099609375
    X8  R114  -0.1377463638782501220703125
    X8  R115  -0.33463394641876220703125
    X8  R116  0.0070464308373630046844482421875
    X8  R117  -0.0011366182006895542144775390625
    X8  R118  -0.2511958181858062744140625
    X8  R119  -0.56054019927978515625
    X8  R120  -0.506515443325042724609375
    X8  R121  -0.823558986186981201171875
    X8  R122  -0.1559227406978607177734375
    X8  R123  -0.4736838638782501220703125
    X8  R124  -0.505581915378570556640625
    X8  R125  -0.401859223842620849609375
    X8  R126  0.00390454824082553386688232421875
    X8  R127  -0.3299303352832794189453125
    X9  COST  0
    X9  R0  -0.062580011785030364990234375
    X9  R1  -0.02702710963785648345947265625
    X9  R2  -0.3807069957256317138671875
    X9  R3  -0.23319566249847412109375
    X9  R4  0.26914012432098388671875
    X9  R5  0.0709451138973236083984375
    X9  R6  -0.0368651449680328369140625
    X9  R7  -0.8103611469268798828125
    X9  R8  0.248848259449005126953125
    X9  R9  -0.212480366230010986328125
    X9  R10  -0.077660195529460906982421875
    X9  R11  -0.1524539887905120849609375
    X9  R12  -0.0502943806350231170654296875
    X9  R13  0.06860162317752838134765625
    X9  R14  0.038343064486980438232421875
    X9  R15  0.55913293361663818359375
    X9  R16  0.727043688297271728515625
    X9  R17  0.01611782424151897430419921875
    X9  R18  -0.054849088191986083984375
    X9  R19  0.26527416706085205078125
    X9  R20  0.0414243899285793304443359375
    X9  R21  -0.0596652142703533172607421875
    X9  R22  -0.52880203723907470703125
    X9  R23  0.17758257687091827392578125
    X9  R24  -0.0553854741156101226806640625
    X9  R25  -0.124172031879425048828125
    X9  R26  0.263615906238555908203125
    X9  R27  -0.5032513141632080078125
    X9  R28  0.314315140247344970703125
    X9  R29  -0.4246718585491180419921875
    X9  R30  -0.13766457140445709228515625
    X9  R31  0.117124982178211212158203125
    X9  R32  0.329929649829864501953125
    X9  R33  0.0175931341946125030517578125
    X9  R34  -0.441393375396728515625
    X9  R35  0.4869473874568939208984375
    X9  R36  0.1057415306568145751953125
    X9  R37  0.0520386882126331329345703125
    X9  R38  0.502328693866729736328125
    X9  R39  0.07187683880329132080078125
    X9  R40  -0.117127723991870880126953125
    X9  R41  0.013579328544437885284423828125
    X9  R42  -0.6743361949920654296875
    X9  R43  -0.033852063119411468505859375
    X9  R44  0.1855315864086151123046875
    X9  R45  -0.24219901859760284423828125
    X9  R46  -0.28053390979766845703125
    X9  R47  -0.2521425187587738037109375
    X9  R48  -0.03077707253396511077880859375
    X9  R49  0.53606450557708740234375
    X9  R50  0.2896314561367034912109375
    X9  R51  0.12738092243671417236328125
    X9  R52  -0.074113190174102783203125
    X9  R53  -0.3610686957836151123046875
    X9  R54  -0.534715175628662109375
    X9  R55  0.10176725685596466064453125
    X9  R56  0.2746060788631439208984375
    X9  R57  0.004526420496404170989990234375
    X9  R58  0.217588126659393310546875
    X9  R59  -0.132790625095367431640625
    X9  R60  0.32684838771820068359375
    X9  R61  -0.4019124507904052734375
    X9  R62  -0.2310504913330078125
    X9  R63  0.0528540909290313720703125
    X9  R64  -0.23676492273807525634765625
    X9  R65  0.0554519407451152801513671875
    X9  R66  0.020611099898815155029296875
    X9  R67  0.078212492167949676513671875
    X9  R68  0.5932800769805908203125
    X9  R69  0.0432635806500911712646484375
    X9  R70  -0.15858222544193267822265625
    X9  R71  -0.4058643281459808349609375
    X9  R72  0.2165485322475433349609375
    X9  R73  0.116783209145069122314453125
    X9  R74  -0.2164444625377655029296875
    X9  R75  0.18089623749256134033203125
    X9  R76  0.22507335245609283447265625
    X9  R77  -0.0466110594570636749267578125
    X9  R78  -0.001819424680434167385101318359375
    X9  R79  0.38037884235382080078125
    X9  R80  0.2588219940662384033203125
    X9  R81  -0.178824484348297119140625
    X9  R82  -0.40174090862274169921875
    X9  R83  0.360821187496185302734375
    X9  R84  -0.56477248668670654296875
    X9  R85  0.2675423324108123779296875
    X9  R86  0.062291182577610015869140625
    X9  R87  -0.070314638316631317138671875
    X9  R88  -0.2891261875629425048828125
    X9  R89  0.165506899356842041015625
    X9  R90  0.02769158221781253814697265625
    X9  R91  0.164264261722564697265625
    X9  R92  0.0173464529216289520263671875
    X9  R93  -0.2053069174289703369140625
    X9  R94  0.16659535467624664306640625
    X9  R95  0.018280327320098876953125
    X9  R96  -0.081459678709506988525390625
    X9  R97  0.02547530829906463623046875
    X9  R98  0.14841495454311370849609375
    X9  R99  0.09786163270473480224609375
    X9  R100  0.271033346652984619140625
    X9  R101  -0.149131000041961669921875
    X9  R102  -0.792877614498138427734375
    X9  R103  -0.638415277004241943359375
    X9  R104  0.13160376250743865966796875
    X9  R105  0.3743424713611602783203125
    X9  R106  0.0798251330852508544921875
    X9  R107  0.3887363374233245849609375
    X9  R108  0.03412306308746337890625
    X9  R109  -0.3083019256591796875
    X9  R110  -0.626812875270843505859375
    X9  R111  -0.001286943326704204082489013671875
    X9  R112  -0.373435199260711669921875
    X9  R113  -0.663688242435455322265625
    X9  R114  0.27406156063079833984375
    X9  R115  0.165185272693634033203125
    X9  R116  0.02161385305225849151611328125
    X9  R117  0.0318578891456127166748046875
    X9  R118  0.08243684470653533935546875
    X9  R119  0.14215315878391265869140625
    X9  R120  -0.267578542232513427734375
    X9  R121  0.13618008792400360107421875
    X9  R122  0.0028842650353908538818359375
    X9  R123  -0.23225019872188568115234375
    X9  R124  0.1473592221736907958984375
    X9  R125  -0.13846074044704437255859375
    X9  R126  -0.0946675837039947509765625
    X9  R127  0.2073254287242889404296875
    X10  COST  0
    X10  R0  -0.28347718715667724609375
    X10  R1  0.08074294030666351318359375
    X10  R2  -1.20003402233123779296875
    X10  R3  0.25401592254638671875
    X10  R4  0.00005350704304873943328857421875
    X10  R5  -0.38325786590576171875
    X10  R6  0.3500499427318572998046875
    X10  R7  -0.318863689899444580078125
    X10  R8  -0.3415093719959259033203125
    X10  R9  0.4446682631969451904296875
    X10  R10  -0.3998802006244659423828125
    X10  R11  -0.2477819621562957763671875
    X10  R12  -0.20926122367382049560546875
    X10  R13  -0.3904623687267303466796875
    X10  R14  -0.307374179363250732421875
    X10  R15  0.67330455780029296875
    X10  R16  0.2981325685977935791015625
    X10  R17  0.2823404967784881591796875
    X10  R18  0.74858438968658447265625
    X10  R19  0.2335360348224639892578125
    X10  R20  -0.278467595577239990234375
    X10  R21  0.536585330963134765625
    X10  R22  0.134409964084625244140625
    X10  R23  0.2056017816066741943359375
    X10  R24  0.297767341136932373046875
    X10  R25  -0.35230290889739990234375
    X10  R26  0.20890916883945465087890625
    X10  R27  -0.87787044048309326171875
    X10  R28  -0.0530284941196441650390625
    X10  R29  -0.3089287281036376953125
    X10  R30  0.453143298625946044921875
    X10  R31  0.16358806192874908447265625
    X10  R32  0.137043774127960205078125
    X10  R33  -0.5329000949859619140625
    X10  R34  -1.1015722751617431640625
    X10  R35  0.38057577610015869140625
    X10  R36  -0.6630318164825439453125
    X10  R37  -0.271824896335601806640625
    X10  R38  -0.08037303388118743896484375
    X10  R39  -0.512398242950439453125
    X10  R40  0.03092630766332149505615234375
    X10  R41  0.082872517406940460205078125
    X10  R42  -0.67676675319671630859375
    X10  R43  0.0482933633029460906982421875
    X10  R44  -0.792046070098876953125
    X10  R45  0.4819258749485015869140625
    X10  R46  -0.451899349689483642578125
    X10  R47  -0.95699131488800048828125
    X10  R48  0.44448339939117431640625
    X10  R49  -0.09125252068042755126953125
    X10  R50  -0.24322254955768585205078125
    X10  R51  0.3794515132904052734375
    X10  R52  0.541318416595458984375
    X10  R53  0.3210236728191375732421875
    X10  R54  0.221986353397369384765625
    X10  R55  -0.086499638855457305908203125
    X10  R56  0.012018145062029361724853515625
    X10  R57  0.250893890857696533203125
    X10  R58  -0.0382836274802684783935546875
    X10  R59  -0.8758602142333984375
    X10  R60  0.2572698295116424560546875
    X10  R61  -0.0536196045577526092529296875
    X10  R62  -0.0523668713867664337158203125
    X10  R63  0.16564942896366119384765625
    X10  R64  0.13803939521312713623046875
    X10  R65  -1.0970866680145263671875
    X10  R66  -0.7600796222686767578125
    X10  R67  -0.0624915659427642822265625
    X10  R68  0.2640214860439300537109375
    X10  R69  0.198771893978118896484375
    X10  R70  0.4211739599704742431640625
    X10  R71  0.2828739583492279052734375
    X10  R72  0.381349503993988037109375
    X10  R73  0.051409564912319183349609375
    X10  R74  0.1329144537448883056640625
    X10  R75  -0.215054690837860107421875
    X10  R76  0.281417369842529296875
    X10  R77  0.3078599274158477783203125
    X10  R78  0.0359917320311069488525390625
    X10  R79  0.22592587769031524658203125
    X10  R80  0.103108294308185577392578125
    X10  R81  0.2682226598262786865234375
    X10  R82  0.134924829006195068359375
    X10  R83  0.16379754245281219482421875
    X10  R84  -0.13509123027324676513671875
    X10  R85  0.316811740398406982421875
    X10  R86  -0.250998556613922119140625
    X10  R87  -0.3774241507053375244140625
    X10  R88  -0.555016338825225830078125
    X10  R89  0.01959230192005634307861328125
    X10  R90  0.121837951242923736572265625
    X10  R91  -0.08554874360561370849609375
    X10  R92  -0.05838222801685333251953125
    X10  R93  0.53785669803619384765625
    X10  R94  -1.02244794368743896484375
    X10  R95  0.3373943269252777099609375
    X10  R96  0.4610533416271209716796875
    X10  R97  -0.51424205303192138671875
    X10  R98  -0.080082081258296966552734375
    X10  R99  -0.2931010425090789794921875
    X10  R100  0.0136982500553131103515625
    X10  R101  0.077469684183597564697265625
    X10  R102  -0.62303483486175537109375
    X10  R103  -0.869144976139068603515625
    X10  R104  0.065262474119663238525390625
    X10  R105  0.3780485093593597412109375
    X10  R106  0.1681833565235137939453125
    X10  R107  0.637098968029022216796875
    X10  R108  0.2597400844097137451171875
    X10  R109  0.21379198133945465087890625
    X10  R110  0.3096797168254852294921875
    X10  R111  0.810590267181396484375
    X10  R112  0.4937632083892822265625
    X10  R113  -0.13006417453289031982421875
    X10  R114  -0.440304815769195556640625
    X10  R115  0.0371841974556446075439453125
    X10  R116  0.07050786912441253662109375
    X10  R117  -0.1565826833248138427734375
    X10  R118  0.2813434600830078125
    X10  R119  -0.295460879802703857421875
    X10  R120  0.262024223804473876953125
    X10  R121  -0.107853211462497711181640625
    X10  R122  -0.2576780617237091064453125
    X10  R123  -0.989562928676605224609375
    X10  R124  -0.2724010944366455078125
    X10  R125  0.351809024810791015625
    X10  R126  0.25638115406036376953125
    X10  R127  0.331659257411956787109375
    X11  COST  0
    X11  R0  0.0771858692169189453125
    X11  R1  0.22245077788829803466796875
    X11  R2  -0.4921787679195404052734375
    X11  R3  0.019380293786525726318359375
    X11  R4  1.0142147541046142578125
    X11  R5  0.547693192958831787109375
    X11  R6  0.3829177320003509521484375
    X11  R7  0.10102887451648712158203125
    X11  R8  0.19865643978118896484375
    X11  R9  -0.2651821672916412353515625
    X11  R10  -0.696262300014495849609375
    X11  R11  -0.764833033084869384765625
    X11  R12  0.1368309557437896728515625
    X11  R13  0.046729601919651031494140625
    X11  R14  0.18020276725292205810546875
    X11  R15  0.548152863979339599609375
    X11  R16  0.56778538227081298828125
    X11  R17  0.24949525296688079833984375
    X11  R18  -0.0132350064814090728759765625
    X11  R19  0.4997507631778717041015625
    X11  R20  0.12989057600498199462890625
    X11  R21  -0.13278920948505401611328125
    X11  R22  0.1865200698375701904296875
    X11  R23  0.000204735508305020630359649658203125
    X11  R24  0.300098478794097900390625
    X11  R25  0.104395724833011627197265625
    X11  R26  0.021744631230831146240234375
    X11  R27  -0.3327930867671966552734375
    X11  R28  0.3564592301845550537109375
    X11  R29  -0.17447888851165771484375
    X11  R30  -0.53125464916229248046875
    X11  R31  0.535901725292205810546875
    X11  R32  -0.02654803730547428131103515625
    X11  R33  -0.266371250152587890625
    X11  R34  -0.4912450313568115234375
    X11  R35  0.76971995830535888671875
    X11  R36  -0.821057736873626708984375
    X11  R37  -0.12328074872493743896484375
    X11  R38  0.2052402496337890625
    X11  R39  0.2844618260860443115234375
    X11  R40  0.10807527601718902587890625
    X11  R41  0.19609202444553375244140625
    X11  R42  -0.0386498905718326568603515625
    X11  R43  -0.557388007640838623046875
    X11  R44  -0.114883668720722198486328125
    X11  R45  -0.051344454288482666015625
    X11  R46  0.4250891506671905517578125
    X11  R47  -0.125707149505615234375
    X11  R48  -0.28446018695831298828125
    X11  R49  0.16438066959381103515625
    X11  R50  -0.2682339847087860107421875
    X11  R51  -0.1462208330631256103515625
    X11  R52  -0.2442276179790496826171875
    X11  R53  0.993373930454254150390625
    X11  R54  -0.034605287015438079833984375
    X11  R55  -0.818198144435882568359375
    X11  R56  0.661597430706024169921875
    X11  R57  -0.14452572166919708251953125
    X11  R58  -0.10916817188262939453125
    X11  R59  -0.673037827014923095703125
    X11  R60  -0.21457926928997039794921875
    X11  R61  0.062359981238842010498046875
    X11  R62  -0.613482415676116943359375
    X11  R63  0.098738975822925567626953125
    X11  R64  0.399115145206451416015625
    X11  R65  -0.3876380026340484619140625
    X11  R66  -0.390772640705108642578125
    X11  R67  0.098995499312877655029296875
    X11  R68  0.4192459285259246826171875
    X11  R69  0.3284023106098175048828125
    X11  R70  0.09293358027935028076171875
    X11  R71  0.1632442474365234375
    X11  R72  -0.374022305011749267578125
    X11  R73  -0.49443638324737548828125
    X11  R74  0.15449477732181549072265625
    X11  R75  -0.387805402278900146484375
    X11  R76  -0.4705974161624908447265625
    X11  R77  -0.217021465301513671875
    X11  R78  -0.259047448635101318359375
    X11  R79  -0.15770243108272552490234375
    X11  R80  0.6549465656280517578125
    X11  R81  -0.31555461883544921875
    X11  R82  0.2571032941341400146484375
    X11  R83  0.4039370715618133544921875
    X11  R84  0.1338420808315277099609375
    X11  R85  -0.4696393907070159912109375
    X11  R86  0.3318391740322113037109375
    X11  R87  0.583610713481903076171875
    X11  R88  -0.55528867244720458984375
    X11  R89  0.3696164786815643310546875
    X11  R90  0.062279365956783294677734375
    X11  R91  0.376778304576873779296875
    X11  R92  0.02653863094747066497802734375
    X11  R93  0.15063558518886566162109375
    X11  R94  -0.50243341922760009765625
    X11  R95  0.023758590221405029296875
    X11  R96  -0.59653413295745849609375
    X11  R97  0.3462502658367156982421875
    X11  R98  0.2192990779876708984375
    X11  R99  -0.012357098050415515899658203125
    X11  R100  0.08227443695068359375
    X11  R101  0.06497953832149505615234375
    X11  R102  -0.898518383502960205078125
    X11  R103  -0.58382689952850341796875
    X11  R104  0.198183834552764892578125
    X11  R105  0.6609475612640380859375
    X11  R106  -0.1859980523586273193359375
    X11  R107  0.3130309581756591796875
    X11  R108  0.56709945201873779296875
    X11  R109  0.19167692959308624267578125
    X11  R110  0.0515813939273357391357421875
    X11  R111  -0.670549929141998291015625
    X11  R112  0.17027069628238677978515625
    X11  R113  0.1275804936885833740234375
    X11  R114  -0.2987118661403656005859375
    X11  R115  -0.2662872970104217529296875
    X11  R116  0.454977810382843017578125
    X11  R117  0.059912286698818206787109375
    X11  R118  -0.22961534559726715087890625
    X11  R119  0.000673012691549956798553466796875
    X11  R120  0.09687544405460357666015625
    X11  R121  0.2319847643375396728515625
    X11  R122  0.3251419961452484130859375
    X11  R123  -0.3833737075328826904296875
    X11  R124  0.4597567617893218994140625
    X11  R125  0.049896299839019775390625
    X11  R126  -0.028639890253543853759765625
    X11  R127  0.3390538990497589111328125
    X12  COST  0
    X12  R0  0.2780177891254425048828125
    X12  R1  -0.03420794010162353515625
    X12  R2  0.22962833940982818603515625
    X12  R3  -0.3774401247501373291015625
    X12  R4  -0.914219379425048828125
    X12  R5  0.2804761230945587158203125
    X12  R6  -0.18543104827404022216796875
    X12  R7  0.015979476273059844970703125
    X12  R8  -0.3944348394870758056640625
    X12  R9  -0.465027034282684326171875
    X12  R10  0.545826256275177001953125
    X12  R11  0.3201346695423126220703125
    X12  R12  -0.252211511135101318359375
    X12  R13  0.12639249861240386962890625
    X12  R14  -0.4809869825839996337890625
    X12  R15  -0.2100811898708343505859375
    X12  R16  -0.092741481959819793701171875
    X12  R17  0.1492138206958770751953125
    X12  R18  0.13734371960163116455078125
    X12  R19  0.17707289755344390869140625
    X12  R20  0.09656487405300140380859375
    X12  R21  -0.30239284038543701171875
    X12  R22  0.305820465087890625
    X12  R23  -0.34288370609283447265625
    X12  R24  0.0583089552819728851318359375
    X12  R25  0.243089377880096435546875
    X12  R26  0.5372278690338134765625
    X12  R27  0.1286009848117828369140625
    X12  R28  -0.21221502125263214111328125
    X12  R29  0.1886447370052337646484375
    X12  R30  -0.50134837627410888671875
    X12  R31  -0.06560611724853515625
    X12  R32  0.4214350283145904541015625
    X12  R33  -0.408153116703033447265625
    X12  R34  0.371711075305938720703125
    X12  R35  -0.76717126369476318359375
    X12  R36  0.414850652217864990234375
    X12  R37  -0.554380893707275390625
    X12  R38  0.459994018077850341796875
    X12  R39  -0.54324245452880859375
    X12  R40  0.2778359353542327880859375
    X12  R41  0.4473789036273956298828125
    X12  R42  0.12704043090343475341796875
    X12  R43  0.090675413608551025390625
    X12  R44  0.15021516382694244384765625
    X12  R45  0.1214010417461395263671875
    X12  R46  -0.41372621059417724609375
    X12  R47  0.4035289287567138671875
    X12  R48  0.20703209936618804931640625
    X12  R49  -0.6417267322540283203125
    X12  R50  -0.3649194538593292236328125
    X12  R51  0.2798216640949249267578125
    X12  R52  0.112527348101139068603515625
    X12  R53  -0.632816612720489501953125
    X12  R54  0.16290710866451263427734375
    X12  R55  0.4062931835651397705078125
    X12  R56  -0.0418243594467639923095703125
    X12  R57  -0.19122709333896636962890625
    X12  R58  0.02289458550512790679931640625
    X12  R59  0.4346241056919097900390625
    X12  R60  0.2568651735782623291015625
    X12  R61  -0.4019714891910552978515625
    X12  R62  0.1543814241886138916015625
    X12  R63  -0.15311507880687713623046875
    X12  R64  0.16675995290279388427734375
    X12  R65  0.19518969953060150146484375
    X12  R66  0.080080501735210418701171875
    X12  R67  0.092226870357990264892578125
    X12  R68  -0.050187699496746063232421875
    X12  R69  -0.85266590118408203125
    X12  R70  0.359313428401947021484375
    X12  R71  -0.35852181911468505859375
    X12  R72  -0.238820612430572509765625
    X12  R73  -0.549330174922943115234375
    X12  R74  0.13261167705059051513671875
    X12  R75  -0.3379691541194915771484375
    X12  R76  -0.552920162677764892578125
    X12  R77  -0.30521905422210693359375
    X12  R78  -0.090763233602046966552734375
    X12  R79  0.01085930131375789642333984375
    X12  R80  0.380485355854034423828125
    X12  R81  -0.4378473758697509765625
    X12  R82  -0.3793769776821136474609375
    X12  R83  -0.104008518159389495849609375
    X12  R84  -0.010708806104958057403564453125
    X12  R85  -0.1249542236328125
    X12  R86  0.4710514247417449951171875
    X12  R87  -0.47318542003631591796875
    X12  R88  0.162414133548736572265625
    X12  R89  -0.09855414927005767822265625
    X12  R90  -0.03440654277801513671875
    X12  R91  0.3584982454776763916015625
    X12  R92  -0.37786424160003662109375
    X12  R93  -0.32193577289581298828125
    X12  R94  0.220184862613677978515625
    X12  R95  -0.490269482135772705078125
    X12  R96  -0.05502498149871826171875
    X12  R97  -0.300316989421844482421875
    X12  R98  -0.01147676073014736175537109375
    X12  R99  -0.2919101417064666748046875
    X12  R100  0.120319426059722900390625
    X12  R101  0.304086863994598388671875
    X12  R102  0.609626471996307373046875
    X12  R103  0.3645524084568023681640625
    X12  R104  -0.358253419399261474609375
    X12  R105  -0.3671926558017730712890625
    X12  R106  -0.568049967288970947265625
    X12  R107  0.12956623733043670654296875
    X12  R108  0.23578746616840362548828125
    X12  R109  0.2602255344390869140625
    X12  R110  0.103121697902679443359375
    X12  R111  0.22351370751857757568359375
    X12  R112  0.03087294660508632659912109375
    X12  R113  -0.04872803390026092529296875
    X12  R114  -0.453019320964813232421875
    X12  R115  -0.27865278720855712890625
    X12  R116  -0.0140152163803577423095703125
    X12  R117  -0.04787604510784149169921875
    X12  R118  -0.22642947733402252197265625
    X12  R119  0.1386042535305023193359375
    X12  R120  0.30225932598114013671875
    X12  R121  0.2926755845546722412109375
    X12  R122  -0.069715745747089385986328125
    X12  R123  0.115044414997100830078125
    X12  R124  0.02596489898860454559326171875
    X12  R125  -0.3643429279327392578125
    X12  R126  0.103218577802181243896484375
    X12  R127  -0.0226602964103221893310546875
    X13  COST  0
    X13  R0  -0.0432754866778850555419921875
    X13  R1  0.0536314062774181365966796875
    X13  R2  -0.66607201099395751953125
    X13  R3  0.811042726039886474609375
    X13  R4  0.566207468509674072265625
    X13  R5  -0.01303227059543132781982421875
    X13  R6  -0.0448226816952228546142578125
    X13  R7  0.111802577972412109375
    X13  R8  -0.009804613888263702392578125
    X13  R9  0.507705986499786376953125
    X13  R10  -0.11665499210357666015625
    X13  R11  0.12709163129329681396484375
    X13  R12  0.60670650005340576171875
    X13  R13  0.08173133432865142822265625
    X13  R14  -0.081693209707736968994140625
    X13  R15  -0.3862714469432830810546875
    X13  R16  -0.0483274273574352264404296875
    X13  R17  0.144203245639801025390625
    X13  R18  0.872660696506500244140625
    X13  R19  0.190789699554443359375
    X13  R20  -0.26601922512054443359375
    X13  R21  0.19815833866596221923828125
    X13  R22  0.0256371237337589263916015625
    X13  R23  -0.0426483452320098876953125
    X13  R24  0.796967923641204833984375
    X13  R25  -0.2184775173664093017578125
    X13  R26  0.26693809032440185546875
    X13  R27  -0.247666418552398681640625
    X13  R28  0.2804930210113525390625
    X13  R29  -0.501838386058807373046875
    X13  R30  0.3187821805477142333984375
    X13  R31  0.4161418974399566650390625
    X13  R32  0.60295903682708740234375
    X13  R33  0.113220788538455963134765625
    X13  R34  0.084996141493320465087890625
    X13  R35  0.121399752795696258544921875
    X13  R36  -0.5381767749786376953125
    X13  R37  -0.1751902401447296142578125
    X13  R38  0.3608244359493255615234375
    X13  R39  -0.2846429049968719482421875
    X13  R40  -0.307854473590850830078125
    X13  R41  -0.02822784148156642913818359375
    X13  R42  -0.3082226216793060302734375
    X13  R43  0.18670283257961273193359375
    X13  R44  -0.3607248365879058837890625
    X13  R45  -0.20557601749897003173828125
    X13  R46  0.193817615509033203125
    X13  R47  0.2011609971523284912109375
    X13  R48  0.2624318301677703857421875
    X13  R49  -0.346981346607208251953125
    X13  R50  0.16059251129627227783203125
    X13  R51  0.62246596813201904296875
    X13  R52  0.23936484754085540771484375
    X13  R53  0.662180960178375244140625
    X13  R54  1.21340656280517578125
    X13  R55  -0.63325870037078857421875
    X13  R56  -0.20019198954105377197265625
    X13  R57  0.17204348742961883544921875
    X13  R58  0.0189354419708251953125
    X13  R59  -0.3721086084842681884765625
    X13  R60  0.1286728680133819580078125
    X13  R61  0.37187540531158447265625
    X13  R62  0.2219878733158111572265625
    X13  R63  0.070777364075183868408203125
    X13  R64  0.013469160534441471099853515625
    X13  R65  -0.0034585488028824329376220703125
    X13  R66  -0.2522884905338287353515625
    X13  R67  0.4047312438488006591796875
    X13  R68  0.365024983882904052734375
    X13  R69  -0.294676601886749267578125
    X13  R70  0.14778195321559906005859375
    X13  R71  0.433085024356842041015625
    X13  R72  0.767309486865997314453125
    X13  R73  -0.4447719752788543701171875
    X13  R74  0.1511676609516143798828125
    X13  R75  0.2625524699687957763671875
    X13  R76  -0.03210370242595672607421875
    X13  R77  0.60487842559814453125
    X13  R78  0.3378073275089263916015625
    X13  R79  0.739574849605560302734375
    X13  R80  0.047916233539581298828125
    X13  R81  -0.0457046367228031158447265625
    X13  R82  0.01177539862692356109619140625
    X13  R83  0.412165582180023193359375
    X13  R84  0.1812135875225067138671875
    X13  R85  0.316975116729736328125
    X13  R86  0.554404199123382568359375
    X13  R87  -0.1989844739437103271484375
    X13  R88  -0.2563352882862091064453125
    X13  R89  -0.509118974208831787109375
    X13  R90  0.25892579555511474609375
    X13  R91  0.20413434505462646484375
    X13  R92  0.428975164890289306640625
    X13  R93  0.2581286132335662841796875
    X13  R94  -0.4308260977268218994140625
    X13  R95  -0.02545301802456378936767578125
    X13  R96  0.3769093453884124755859375
    X13  R97  -0.158205509185791015625
    X13  R98  0.74923741817474365234375
    X13  R99  0.338782131671905517578125
    X13  R100  -0.2588346302509307861328125
    X13  R101  -0.182501316070556640625
    X13  R102  -0.009802891872823238372802734375
    X13  R103  -0.545505464076995849609375
    X13  R104  0.2063076794147491455078125
    X13  R105  -0.019190438091754913330078125
    X13  R106  0.501128733158111572265625
    X13  R107  0.176504671573638916015625
    X13  R108  -0.035759411752223968505859375
    X13  R109  -0.12548075616359710693359375
    X13  R110  0.924690425395965576171875
    X13  R111  0.3550498783588409423828125
    X13  R112  0.401907861232757568359375
    X13  R113  0.2542186677455902099609375
    X13  R114  0.08678875863552093505859375
    X13  R115  0.2487284839153289794921875
    X13  R116  0.4821405708789825439453125
    X13  R117  0.438058674335479736328125
    X13  R118  0.06827737390995025634765625
    X13  R119  0.3082785904407501220703125
    X13  R120  -0.21587829291820526123046875
    X13  R121  -0.16076321899890899658203125
    X13  R122  0.17194415628910064697265625
    X13  R123  -0.2041786015033721923828125
    X13  R124  -0.02269434742629528045654296875
    X13  R125  -0.09990656375885009765625
    X13  R126  0.2218334972858428955078125
    X13  R127  -0.16619813442230224609375
    X14  COST  0
    X14  R0  -0.723436892032623291015625
    X14  R1  -0.291629374027252197265625
    X14  R2  0.318744957447052001953125
    X14  R3  -0.577346980571746826171875
    X14  R4  0.3132377564907073974609375
    X14  R5  -0.6423504352569580078125
    X14  R6  -0.15141494572162628173828125
    X14  R7  0.55888497829437255859375
    X14  R8  -0.27516591548919677734375
    X14  R9  -0.24704422056674957275390625
    X14  R10  0.091219820082187652587890625
    X14  R11  -0.36255133152008056640625
    X14  R12  -0.135518729686737060546875
    X14  R13  0.3108814060688018798828125
    X14  R14  0.0350552462041378021240234375
    X14  R15  -0.609381020069122314453125
    X14  R16  -0.36060428619384765625
    X14  R17  0.0572851039469242095947265625
    X14  R18  0.574790298938751220703125
    X14  R19  0.063295401632785797119140625
    X14  R20  -0.4300720393657684326171875
    X14  R21  -0.082199640572071075439453125
    X14  R22  -0.3654754161834716796875
    X14  R23  0.18513934314250946044921875
    X14  R24  -0.612949371337890625
    X14  R25  -0.0337296389043331146240234375
    X14  R26  -0.124547548592090606689453125
    X14  R27  0.50404262542724609375
    X14  R28  -0.15511997044086456298828125
    X14  R29  0.412274777889251708984375
    X14  R30  -0.027974568307399749755859375
    X14  R31  -0.315339267253875732421875
    X14  R32  0.368506252765655517578125
    X14  R33  -0.1914453804492950439453125
    X14  R34  0.111806213855743408203125
    X14  R35  0.0168252401053905487060546875
    X14  R36  -0.701653540134429931640625
    X14  R37  0.2019793987274169921875
    X14  R38  -0.082180030643939971923828125
    X14  R39  0.3772804737091064453125
    X14  R40  -0.1304111182689666748046875
    X14  R41  0.118216864764690399169921875
    X14  R42  0.501545250415802001953125
    X14  R43  -0.661367356777191162109375
    X14  R44  -0.3570240437984466552734375
    X14  R45  -0.38823330402374267578125
    X14  R46  0.122488133609294891357421875
    X14  R47  0.38396632671356201171875
    X14  R48  0.075302787125110626220703125
    X14  R49  0.4692552983760833740234375
    X14  R50  0.693939507007598876953125
    X14  R51  0.254755914211273193359375
    X14  R52  -0.310089111328125
    X14  R53  -0.0749308764934539794921875
    X14  R54  -0.595004975795745849609375
    X14  R55  -0.17784620821475982666015625
    X14  R56  -0.200307428836822509765625
    X14  R57  -0.3557016849517822265625
    X14  R58  0.3480312824249267578125
    X14  R59  0.08285446465015411376953125
    X14  R60  0.01182686723768711090087890625
    X14  R61  -0.607845127582550048828125
    X14  R62  -0.4199666082859039306640625
    X14  R63  0.014233596622943878173828125
    X14  R64  -0.15517379343509674072265625
    X14  R65  0.1355836689472198486328125
    X14  R66  -0.18692226707935333251953125
    X14  R67  -0.154027640819549560546875
    X14  R68  -0.71575438976287841796875
    X14  R69  -0.2709292471408843994140625
    X14  R70  -0.304171860218048095703125
    X14  R71  -0.669548571109771728515625
    X14  R72  0.11083556711673736572265625
    X14  R73  0.01026483438909053802490234375
    X14  R74  -0.3543817102909088134765625
    X14  R75  0.54317629337310791015625
    X14  R76  -0.1340682804584503173828125
    X14  R77  -0.414892852306365966796875
    X14  R78  -0.0283880718052387237548828125
    X14  R79  -0.0495570115745067596435546875
    X14  R80  -0.0440109409391880035400390625
    X14  R81  -0.47155249118804931640625
    X14  R82  -0.58023369312286376953125
    X14  R83  -0.57579433917999267578125
    X14  R84  -0.2944781482219696044921875
    X14  R85  0.11160056293010711669921875
    X14  R86  0.097171597182750701904296875
    X14  R87  -0.254229605197906494140625
    X14  R88  0.0539620704948902130126953125
    X14  R89  0.03060937859117984771728515625
    X14  R90  0.2512476146221160888671875
    X14  R91  0.0663297474384307861328125
    X14  R92  -0.16757006943225860595703125
    X14  R93  -0.674071609973907470703125
    X14  R94  -0.1960053145885467529296875
    X14  R95  -0.616436004638671875
    X14  R96  0.306871473789215087890625
    X14  R97  0.115828864276409149169921875
    X14  R98  -0.079189248383045196533203125
    X14  R99  -0.17897771298885345458984375
    X14  R100  -0.220670282840728759765625
    X14  R101  -0.3881048262119293212890625
    X14  R102  -0.73268306255340576171875
    X14  R103  0.400223910808563232421875
    X14  R104  0.0160626508295536041259765625
    X14  R105  -0.5500354766845703125
    X14  R106  -0.296304285526275634765625
    X14  R107  -0.951369106769561767578125
    X14  R108  -0.3578822612762451171875
    X14  R109  -0.59784066677093505859375
    X14  R110  -0.3957034647464752197265625
    X14  R111  -0.184283912181854248046875
    X14  R112  -0.63941061496734619140625
    X14  R113  0.30332672595977783203125
    X14  R114  0.437970459461212158203125
    X14  R115  0.2562521398067474365234375
    X14  R116  -0.435989916324615478515625
    X14  R117  -0.2317148745059967041015625
    X14  R118  0.50424969196319580078125
    X14  R119  -0.5197131633758544921875
    X14  R120  -0.549147546291351318359375
    X14  R121  -0.905028879642486572265625
    X14  R122  -0.093345262110233306884765625
    X14  R123  0.2841751575469970703125
    X14  R124  0.2045290768146514892578125
    X14  R125  -0.448375999927520751953125
    X14  R126  0.145456373691558837890625
    X14  R127  0.251855075359344482421875
    X15  COST  0
    X15  R0  0.22817261517047882080078125
    X15  R1  0.2590585052967071533203125
    X15  R2  -0.0390461347997188568115234375
    X15  R3  0.09843398630619049072265625
    X15  R4  -0.677065312862396240234375
    X15  R5  0.3882725536823272705078125
    X15  R6  0.334390163421630859375
    X15  R7  -0.4452370107173919677734375
    X15  R8  0.06810609996318817138671875
    X15  R9  0.230809986591339111328125
    X15  R10  -0.432648122310638427734375
    X15  R11  -0.062603525817394256591796875
    X15  R12  0.3260230123996734619140625
    X15  R13  -0.51626300811767578125
    X15  R14  0.19292901456356048583984375
    X15  R15  0.2619859874248504638671875
    X15  R16  0.463675200939178466796875
    X15  R17  0.083352513611316680908203125
    X15  R18  0.4218749701976776123046875
    X15  R19  0.2850247919559478759765625
    X15  R20  -0.08093990385532379150390625
    X15  R21  0.0358597449958324432373046875
    X15  R22  -0.062272526323795318603515625
    X15  R23  0.5610926151275634765625
    X15  R24  -0.23820598423480987548828125
    X15  R25  0.170004785060882568359375
    X15  R26  -0.59984529018402099609375
    X15  R27  -0.505836963653564453125
    X15  R28  0.2900547087192535400390625
    X15  R29  -0.2825450003147125244140625
    X15  R30  -0.3107917606830596923828125
    X15  R31  -0.326106727123260498046875
    X15  R32  0.223630011081695556640625
    X15  R33  -0.1801665723323822021484375
    X15  R34  0.507501542568206787109375
    X15  R35  0.082970760762691497802734375
    X15  R36  0.3186992108821868896484375
    X15  R37  -0.38265120983123779296875
    X15  R38  -0.422383248805999755859375
    X15  R39  -0.068676494061946868896484375
    X15  R40  0.464892685413360595703125
    X15  R41  -0.719239711761474609375
    X15  R42  -0.563969314098358154296875
    X15  R43  -0.117852889001369476318359375
    X15  R44  -0.4628352820873260498046875
    X15  R45  0.1539633572101593017578125
    X15  R46  0.44473898410797119140625
    X15  R47  -0.447429955005645751953125
    X15  R48  0.22751532495021820068359375
    X15  R49  0.20859968662261962890625
    X15  R50  -0.52606213092803955078125
    X15  R51  -0.07884134352207183837890625
    X15  R52  0.51176083087921142578125
    X15  R53  -0.2087189853191375732421875
    X15  R54  -0.22301352024078369140625
    X15  R55  -0.420894205570220947265625
    X15  R56  0.352395594120025634765625
    X15  R57  0.185170948505401611328125
    X15  R58  -0.5061409473419189453125
    X15  R59  -0.2350785434246063232421875
    X15  R60  0.089679159224033355712890625
    X15  R61  0.23551727831363677978515625
    X15  R62  -0.09523069858551025390625
    X15  R63  0.15992520749568939208984375
    X15  R64  -0.13473115861415863037109375
    X15  R65  0.2380844056606292724609375
    X15  R66  0.681186854839324951171875
    X15  R67  0.06206898391246795654296875
    X15  R68  0.15269674360752105712890625
    X15  R69  0.4237677156925201416015625
    X15  R70  0.23921950161457061767578125
    X15  R71  0.16786886751651763916015625
    X15  R72  -0.766803920269012451171875
    X15  R73  -0.3106581270694732666015625
    X15  R74  -0.22156886756420135498046875
    X15  R75  -0.694344222545623779296875
    X15  R76  -0.350066661834716796875
    X15  R77  0.26900064945220947265625
    X15  R78  -0.19708566367626190185546875
    X15  R79  0.0609947741031646728515625
    X15  R80  0.753558099269866943359375
    X15  R81  -0.3316547572612762451171875
    X15  R82  0.1681517660617828369140625
    X15  R83  0.149236857891082763671875
    X15  R84  -0.3931129872798919677734375
    X15  R85  -0.715523302555084228515625
    X15  R86  0.549907386302947998046875
    X15  R87  0.3115602433681488037109375
    X15  R88  -0.1602945625782012939453125
    X15  R89  0.53352701663970947265625
    X15  R90  -0.438021719455718994140625
    X15  R91  -0.2912650406360626220703125
    X15  R92  -0.442971706390380859375
    X15  R93  0.778415203094482421875
    X15  R94  -0.124057240784168243408203125
    X15  R95  0.2946608364582061767578125
    X15  R96  -0.7366619110107421875
    X15  R97  -0.3918629586696624755859375
    X15  R98  0.548198997974395751953125
    X15  R99  -0.3328640460968017578125
    X15  R100  0.3910237252712249755859375
    X15  R101  0.22728373110294342041015625
    X15  R102  0.2337612211704254150390625
    X15  R103  -0.3416598141193389892578125
    X15  R104  0.00170364580117166042327880859375
    X15  R105  0.255352079868316650390625
    X15  R106  -0.379674971103668212890625
    X15  R107  0.043044514954090118408203125
    X15  R108  0.41139495372772216796875
    X15  R109  0.00002079785917885601520538330078125
    X15  R110  -0.3021140396595001220703125
    X15  R111  0.44398319721221923828125
    X15  R112  0.717649996280670166015625
    X15  R113  -0.3250967562198638916015625
    X15  R114  -0.02656022645533084869384765625
    X15  R115  -0.434914648532867431640625
    X15  R116  -0.39905941486358642578125
    X15  R117  -0.76485192775726318359375
    X15  R118  -0.65567934513092041015625
    X15  R119  0.2457747161388397216796875
    X15  R120  0.17494378983974456787109375
    X15  R121  0.2367514073848724365234375
    X15  R122  0.3025474846363067626953125
    X15  R123  0.3957763612270355224609375
    X15  R124  -0.12756700813770294189453125
    X15  R125  0.4246609508991241455078125
    X15  R126  0.068910546600818634033203125
    X15  R127  0.360225021839141845703125
    X16  COST  0
    X16  R0  0.03154276311397552490234375
    X16  R1  -0.70452392101287841796875
    X16  R2  0.31477272510528564453125
    X16  R3  -0.364130318164825439453125
    X16  R4  0.22041915357112884521484375
    X16  R5  0.1563050448894500732421875
    X16  R6  0.404072940349578857421875
    X16  R7  0.11284101009368896484375
    X16  R8  -0.65317821502685546875
    X16  R9  -0.1855511963367462158203125
    X16  R10  0.4463036060333251953125
    X16  R11  0.585094034671783447265625
    X16  R12  -0.58240711688995361328125
    X16  R13  -0.16019545495510101318359375
    X16  R14  0.104485057294368743896484375
    X16  R15  0.086224086582660675048828125
    X16  R16  0.077366285026073455810546875
    X16  R17  0.273799598217010498046875
    X16  R18  0.42843520641326904296875
    X16  R19  0.13316710293292999267578125
    X16  R20  -0.2310743629932403564453125
    X16  R21  -0.21604035794734954833984375
    X16  R22  -0.3184276521205902099609375
    X16  R23  -0.2354218661785125732421875
    X16  R24  -0.10616545379161834716796875
    X16  R25  0.27384221553802490234375
    X16  R26  0.07596720755100250244140625
    X16  R27  0.06791913509368896484375
    X16  R28  -0.3764220774173736572265625
    X16  R29  0.332499802112579345703125
    X16  R30  -0.14096708595752716064453125
    X16  R31  -0.55203449726104736328125
    X16  R32  -0.641157329082489013671875
    X16  R33  -0.5220425128936767578125
    X16  R34  -0.813665568828582763671875
    X16  R35  0.24298982322216033935546875
    X16  R36  -0.246486008167266845703125
    X16  R37  -0.4610004127025604248046875
    X16  R38  -0.09226275980472564697265625
    X16  R39  -0.57852661609649658203125
    X16  R40  -0.33504521846771240234375
    X16  R41  -0.30538022518157958984375
    X16  R42  -0.19515942037105560302734375
    X16  R43  0.607513725757598876953125
    X16  R44  -0.3747830092906951904296875
    X16  R45  0.15716265141963958740234375
    X16  R46  -0.4045030176639556884765625
    X16  R47  -0.533687114715576171875
    X16  R48  -0.067597925662994384765625
    X16  R49  -0.58795678615570068359375
    X16  R50  -0.6461479663848876953125
    X16  R51  -0.232315242290496826171875
    X16  R52  -0.2933182418346405029296875
    X16  R53  -0.31268084049224853515625
    X16  R54  -0.690347135066986083984375
    X16  R55  0.19778101146221160888671875
    X16  R56  0.2943685352802276611328125
    X16  R57  -0.50572872161865234375
    X16  R58  0.2157849967479705810546875
    X16  R59  -0.3423435986042022705078125
    X16  R60  -0.11504328250885009765625
    X16  R61  -0.612531840801239013671875
    X16  R62  0.599515497684478759765625
    X16  R63  -0.41442072391510009765625
    X16  R64  -0.17915947735309600830078125
    X16  R65  -0.13387767970561981201171875
    X16  R66  -0.745294034481048583984375
    X16  R67  -0.2725901305675506591796875
    X16  R68  0.1239611804485321044921875
    X16  R69  0.0317907519638538360595703125
    X16  R70  0.0287093333899974822998046875
    X16  R71  0.111540727317333221435546875
    X16  R72  -0.70726144313812255859375
    X16  R73  -0.735419452190399169921875
    X16  R74  0.5085046291351318359375
    X16  R75  0.18115727603435516357421875
    X16  R76  -0.21297550201416015625
    X16  R77  -0.640056431293487548828125
    X16  R78  -0.51175725460052490234375
    X16  R79  0.9261629581451416015625
    X16  R80  0.3209321796894073486328125
    X16  R81  0.120819270610809326171875
    X16  R82  0.17054285109043121337890625
    X16  R83  -0.33162271976470947265625
    X16  R84  -0.1880919933319091796875
    X16  R85  -0.4247848987579345703125
    X16  R86  0.13287203013896942138671875
    X16  R87  -0.065056346356868743896484375
    X16  R88  0.21089686453342437744140625
    X16  R89  -0.35907733440399169921875
    X16  R90  0.0632965266704559326171875
    X16  R91  -0.19477455317974090576171875
    X16  R92  -0.803584873676300048828125
    X16  R93  -0.2482049763202667236328125
    X16  R94  -0.442318141460418701171875
    X16  R95  -0.347618520259857177734375
    X16  R96  -0.0028338688425719738006591796875
    X16  R97  -0.4719022214412689208984375
    X16  R98  -0.366032183170318603515625
    X16  R99  -0.420748233795166015625
    X16  R100  -0.257675349712371826171875
    X16  R101  -0.0426827557384967803955078125
    X16  R102  0.13324825465679168701171875
    X16  R103  0.32677400112152099609375
    X16  R104  -0.366586863994598388671875
    X16  R105  -0.411194980144500732421875
    X16  R106  -0.81925547122955322265625
    X16  R107  -0.14690761268138885498046875
    X16  R108  -0.11513487994670867919921875
    X16  R109  -0.0031635495834052562713623046875
    X16  R110  -0.641399383544921875
    X16  R111  -0.257775783538818359375
    X16  R112  -0.01258015446364879608154296875
    X16  R113  0.52719175815582275390625
    X16  R114  -0.2338209450244903564453125
    X16  R115  -0.58738243579864501953125
    X16  R116  -0.4880935251712799072265625
    X16  R117  -0.467704296112060546875
    X16  R118  -0.466532051563262939453125
    X16  R119  -0.280443668365478515625
    X16  R120  -0.4185073077678680419921875
    X16  R121  -0.2755031287670135498046875
    X16  R122  0.0768719613552093505859375
    X16  R123  -0.3599804937839508056640625
    X16  R124  0.21658770740032196044921875
    X16  R125  -0.00170555640943348407745361328125
    X16  R126  -0.1027067005634307861328125
    X16  R127  0.326415836811065673828125
    X17  COST  0
    X17  R0  -0.095789305865764617919921875
    X17  R1  0.3059094250202178955078125
    X17  R2  0.3921138346195220947265625
    X17  R3  0.012713680975139141082763671875
    X17  R4  -0.49452316761016845703125
    X17  R5  0.06342969834804534912109375
    X17  R6  -0.574445188045501708984375
    X17  R7  0.359978497028350830078125
    X17  R8  -0.2777128517627716064453125
    X17  R9  -0.22466801106929779052734375
    X17  R10  0.85508823394775390625
    X17  R11  0.17302979528903961181640625
    X17  R12  -0.086549498140811920166015625
    X17  R13  0.54087460041046142578125
    X17  R14  0.0804557502269744873046875
    X17  R15  0.279968738555908203125
    X17  R16  -0.097788162529468536376953125
    X17  R17  -0.15633904933929443359375
    X17  R18  -0.50274646282196044921875
    X17  R19  -0.123701147735118865966796875
    X17  R20  0.4983541071414947509765625
    X17  R21  -0.3702101409435272216796875
    X17  R22  -0.3491173684597015380859375
    X17  R23  -0.29059779644012451171875
    X17  R24  -0.66552841663360595703125
    X17  R25  0.60959589481353759765625
    X17  R26  0.3747042715549468994140625
    X17  R27  0.0460486821830272674560546875
    X17  R28  -0.695858180522918701171875
    X17  R29  0.472569644451141357421875
    X17  R30  -0.59426319599151611328125
    X17  R31  -0.74483215808868408203125
    X17  R32  0.2506063878536224365234375
    X17  R33  0.1797527968883514404296875
    X17  R34  0.3628985881805419921875
    X17  R35  -0.7658450603485107421875
    X17  R36  0.57094609737396240234375
    X17  R37  -0.55582392215728759765625
    X17  R38  0.64877116680145263671875
    X17  R39  0.01780613698065280914306640625
    X17  R40  -0.3199506700038909912109375
    X17  R41  0.076333738863468170166015625
    X17  R42  -0.1039668619632720947265625
    X17  R43  0.4260025918483734130859375
    X17  R44  -0.14770342409610748291015625
    X17  R45  -0.346808850765228271484375
    X17  R46  -0.124740421772003173828125
    X17  R47  0.071310631930828094482421875
    X17  R48  -0.0077487532980740070343017578125
    X17  R49  0.0378655381500720977783203125
    X17  R50  0.526919662952423095703125
    X17  R51  -0.2157789766788482666015625
    X17  R52  0.036322183907032012939453125
    X17  R53  -0.577656924724578857421875
    X17  R54  -0.82579362392425537109375
    X17  R55  0.573251187801361083984375
    X17  R56  -0.1724915206432342529296875
    X17  R57  0.086800970137119293212890625
    X17  R58  -0.189856469631195068359375
    X17  R59  0.400543630123138427734375
    X17  R60  -0.1343211829662322998046875
    X17  R61  0.1931923329830169677734375
    X17  R62  0.404232919216156005859375
    X17  R63  0.005525835789740085601806640625
    X17  R64  -0.3506305217742919921875
    X17  R65  0.14661882817745208740234375
    X17  R66  0.0570726878941059112548828125
    X17  R67  0.052772380411624908447265625
    X17  R68  -0.109401188790798187255859375
    X17  R69  -0.1763291656970977783203125
    X17  R70  0.22572742402553558349609375
    X17  R71  -0.559659302234649658203125
    X17  R72  0.2621209323406219482421875
    X17  R73  -0.3182917535305023193359375
    X17  R74  0.120182029902935028076171875
    X17  R75  -0.376672685146331787109375
    X17  R76  -0.4565732777118682861328125
    X17  R77  -0.2956054210662841796875
    X17  R78  0.15840227901935577392578125
    X17  R79  -0.03834675252437591552734375
    X17  R80  0.231830656528472900390625
    X17  R81  0.0540550053119659423828125
    X17  R82  -0.4803031980991363525390625
    X17  R83  -0.77535927295684814453125
    X17  R84  0.13876433670520782470703125
    X17  R85  0.24181933701038360595703125
    X17  R86  0.606561958789825439453125
    X17  R87  -0.54846477508544921875
    X17  R88  0.16657043993473052978515625
    X17  R89  0.32592868804931640625
    X17  R90  -0.0575143061578273773193359375
    X17  R91  -0.070321537554264068603515625
    X17  R92  0.011833227239549160003662109375
    X17  R93  -0.311673641204833984375
    X17  R94  0.22748754918575286865234375
    X17  R95  -0.56361401081085205078125
    X17  R96  0.0261696986854076385498046875
    X17  R97  -0.57400226593017578125
    X17  R98  0.1747287809848785400390625
    X17  R99  0.1735821068286895751953125
    X17  R100  -0.12027037143707275390625
    X17  R101  -0.2697996199131011962890625
    X17  R102  0.4286008775234222412109375
    X17  R103  0.63381206989288330078125
    X17  R104  -0.07801084220409393310546875
    X17  R105  -0.54310190677642822265625
    X17  R106  -0.095877669751644134521484375
    X17  R107  -0.2285241782665252685546875
    X17  R108  -0.39618968963623046875
    X17  R109  -0.127315700054168701171875
    X17  R110  -0.4567870795726776123046875
    X17  R111  -0.1570309102535247802734375
    X17  R112  -0.4096756875514984130859375
    X17  R113  -0.20237658917903900146484375
    X17  R114  0.331668674945831298828125
    X17  R115  0.31698930263519287109375
    X17  R116  -0.45057380199432373046875
    X17  R117  -0.2604232132434844970703125
    X17  R118  0.0074741994030773639678955078125
    X17  R119  -0.42099273204803466796875
    X17  R120  -0.453926384449005126953125
    X17  R121  -0.037163637578487396240234375
    X17  R122  0.4857858717441558837890625
    X17  R123  -0.3143188953399658203125
    X17  R124  0.206280767917633056640625
    X17  R125  0.17009246349334716796875
    X17  R126  -0.0932370126247406005859375
    X17  R127  -0.23318946361541748046875
    X18  COST  0
    X18  R0  0.14491593837738037109375
    X18  R1  -0.4887125492095947265625
    X18  R2  -0.02381408214569091796875
    X18  R3  -0.007940501905977725982666015625
    X18  R4  -1.03801119327545166015625
    X18  R5  0.09595192968845367431640625
    X18  R6  0.2078149616718292236328125
    X18  R7  -0.6173593997955322265625
    X18  R8  0.19000375270843505859375
    X18  R9  -0.123053275048732757568359375
    X18  R10  -0.672341048717498779296875
    X18  R11  -0.74165165424346923828125
    X18  R12  -0.691546738147735595703125
    X18  R13  0.02688886038959026336669921875
    X18  R14  0.0345675051212310791015625
    X18  R15  -0.18796162307262420654296875
    X18  R16  0.5223209857940673828125
    X18  R17  0.4014094173908233642578125
    X18  R18  0.318568408489227294921875
    X18  R19  0.164725720882415771484375
    X18  R20  -0.05462338030338287353515625
    X18  R21  0.12937653064727783203125
    X18  R22  -0.02188711799681186676025390625
    X18  R23  -0.4200612604618072509765625
    X18  R24  -0.6635682582855224609375
    X18  R25  -0.1158048212528228759765625
    X18  R26  0.4587199985980987548828125
    X18  R27  -0.3506738245487213134765625
    X18  R28  0.15299792587757110595703125
    X18  R29  0.081003367900848388671875
    X18  R30  0.02309517562389373779296875
    X18  R31  -0.168185055255889892578125
    X18  R32  -0.6454143524169921875
    X18  R33  -0.289806187152862548828125
    X18  R34  0.68938076496124267578125
    X18  R35  -0.174250900745391845703125
    X18  R36  0.520914018154144287109375
    X18  R37  -0.2678746879100799560546875
    X18  R38  0.4055131971836090087890625
    X18  R39  -0.23182584345340728759765625
    X18  R40  0.22975863516330718994140625
    X18  R41  0.263420045375823974609375
    X18  R42  -0.2090655267238616943359375
    X18  R43  -0.699911296367645263671875
    X18  R44  0.3703443706035614013671875
    X18  R45  0.2820400893688201904296875
    X18  R46  -0.2989294528961181640625
    X18  R47  0.1873932778835296630859375
    X18  R48  0.3020646572113037109375
    X18  R49  0.056975550949573516845703125
    X18  R50  -0.0886423289775848388671875
    X18  R51  -0.43242371082305908203125
    X18  R52  -0.034105874598026275634765625
    X18  R53  -0.14286409318447113037109375
    X18  R54  0.098057992756366729736328125
    X18  R55  -0.327148735523223876953125
    X18  R56  0.331286847591400146484375
    X18  R57  -0.153726756572723388671875
    X18  R58  0.2850356400012969970703125
    X18  R59  0.347171843051910400390625
    X18  R60  0.3255617916584014892578125
    X18  R61  -0.3030668199062347412109375
    X18  R62  -0.846515119075775146484375
    X18  R63  -0.1994059085845947265625
    X18  R64  0.0058078761212527751922607421875
    X18  R65  0.2702860534191131591796875
    X18  R66  0.792608916759490966796875
    X18  R67  -0.3133694231510162353515625
    X18  R68  -0.54632079601287841796875
    X18  R69  -0.39789211750030517578125
    X18  R70  0.36226546764373779296875
    X18  R71  -0.27853238582611083984375
    X18  R72  -0.2997793853282928466796875
    X18  R73  -0.21474005281925201416015625
    X18  R74  -0.565773546695709228515625
    X18  R75  0.103734023869037628173828125
    X18  R76  -0.12687562406063079833984375
    X18  R77  -0.755762755870819091796875
    X18  R78  -0.086886636912822723388671875
    X18  R79  -1.17369306087493896484375
    X18  R80  0.172205865383148193359375
    X18  R81  0.24068979918956756591796875
    X18  R82  0.09237827360630035400390625
    X18  R83  -0.22938095033168792724609375
    X18  R84  -0.616768658161163330078125
    X18  R85  0.0249089188873767852783203125
    X18  R86  0.35994374752044677734375
    X18  R87  0.091842181980609893798828125
    X18  R88  -0.2768680155277252197265625
    X18  R89  0.26904833316802978515625
    X18  R90  0.3511677682399749755859375
    X18  R91  0.22931386530399322509765625
    X18  R92  -0.4480836689472198486328125
    X18  R93  -0.531361639499664306640625
    X18  R94  0.57461535930633544921875
    X18  R95  -0.22597353160381317138671875
    X18  R96  0.2908861339092254638671875
    X18  R97  0.122419416904449462890625
    X18  R98  -0.22596852481365203857421875
    X18  R99  0.0114698112010955810546875
    X18  R100  -0.059002734720706939697265625
    X18  R101  0.13582766056060791015625
    X18  R102  0.110001482069492340087890625
    X18  R103  -0.330021083354949951171875
    X18  R104  -0.1736431121826171875
    X18  R105  -0.0120265446603298187255859375
    X18  R106  -0.18754677474498748779296875
    X18  R107  -0.420962512493133544921875
    X18  R108  0.11506335437297821044921875
    X18  R109  -0.18485726416110992431640625
    X18  R110  0.072131820023059844970703125
    X18  R111  -0.19185270369052886962890625
    X18  R112  -0.219105064868927001953125
    X18  R113  -0.396711766719818115234375
    X18  R114  -0.06942500174045562744140625
    X18  R115  -0.115571342408657073974609375
    X18  R116  -0.760352313518524169921875
    X18  R117  0.0432531833648681640625
    X18  R118  -0.2008643448352813720703125
    X18  R119  -0.03636062145233154296875
    X18  R120  -0.1566174030303955078125
    X18  R121  0.069930553436279296875
    X18  R122  0.1562400758266448974609375
    X18  R123  0.4777128994464874267578125
    X18  R124  0.1053526103496551513671875
    X18  R125  -0.278072059154510498046875
    X18  R126  -0.0393315590918064117431640625
    X18  R127  0.3077843189239501953125
    X19  COST  0
    X19  R0  0.655972778797149658203125
    X19  R1  0.092916809022426605224609375
    X19  R2  -0.50390422344207763671875
    X19  R3  0.7379906177520751953125
    X19  R4  0.348612248897552490234375
    X19  R5  0.945403754711151123046875
    X19  R6  0.36254251003265380859375
    X19  R7  0.472990512847900390625
    X19  R8  -0.4197105467319488525390625
    X19  R9  0.498446524143218994140625
    X19  R10  -0.3593823015689849853515625
    X19  R11  0.0524016730487346649169921875
    X19  R12  0.38576042652130126953125
    X19  R13  0.199222147464752197265625
    X19  R14  -0.17931894958019256591796875
    X19  R15  0.583007991313934326171875
    X19  R16  0.707058429718017578125
    X19  R17  0.23238681256771087646484375
    X19  R18  -0.747487962245941162109375
    X19  R19  0.1690457761287689208984375
    X19  R20  0.3651926219463348388671875
    X19  R21  0.70895254611968994140625
    X19  R22  0.504602849483489990234375
    X19  R23  -0.2516477406024932861328125
    X19  R24  -0.288201987743377685546875
    X19  R25  1.018769741058349609375
    X19  R26  -0.02579349838197231292724609375
    X19  R27  -0.3523771762847900390625
    X19  R28  0.58648192882537841796875
    X19  R29  0.22867955267429351806640625
    X19  R30  0.4762572944164276123046875
    X19  R31  -0.513714134693145751953125
    X19  R32  0.012345534749329090118408203125
    X19  R33  0.264970362186431884765625
    X19  R34  0.013293622992932796478271484375
    X19  R35  0.105206437408924102783203125
    X19  R36  -0.242758691310882568359375
    X19  R37  0.298953235149383544921875
    X19  R38  -0.0642602443695068359375
    X19  R39  -0.278799116611480712890625
    X19  R40  0.567715823650360107421875
    X19  R41  0.4699829518795013427734375
    X19  R42  -0.3061089217662811279296875
    X19  R43  -0.108653716742992401123046875
    X19  R44  -0.82597911357879638671875
    X19  R45  0.3401633203029632568359375
    X19  R46  -0.0380635149776935577392578125
    X19  R47  -0.634827554225921630859375
    X19  R48  0.4388094246387481689453125
    X19  R49  -0.0381236411631107330322265625
    X19  R50  -0.3156032264232635498046875
    X19  R51  -0.392951905727386474609375
    X19  R52  0.8135979175567626953125
    X19  R53  -0.0570598579943180084228515625
    X19  R54  -0.518039166927337646484375
    X19  R55  -0.6907558441162109375
    X19  R56  0.2535261213779449462890625
    X19  R57  -0.0492517314851284027099609375
    X19  R58  -0.1949757039546966552734375
    X19  R59  -0.669519960880279541015625
    X19  R60  -0.255413711071014404296875
    X19  R61  0.7758376598358154296875
    X19  R62  -0.0331559218466281890869140625
    X19  R63  0.0314298085868358612060546875
    X19  R64  0.774725735187530517578125
    X19  R65  -0.24133576452732086181640625
    X19  R66  -0.1357025206089019775390625
    X19  R67  0.6544342041015625
    X19  R68  1.12935161590576171875
    X19  R69  -0.02053835429251194000244140625
    X19  R70  0.5967619419097900390625
    X19  R71  0.656721591949462890625
    X19  R72  0.232070505619049072265625
    X19  R73  -0.15631783008575439453125
    X19  R74  0.536870181560516357421875
    X19  R75  -0.95486533641815185546875
    X19  R76  0.329070866107940673828125
    X19  R77  0.58698570728302001953125
    X19  R78  -0.13182961940765380859375
    X19  R79  -0.26257336139678955078125
    X19  R80  0.0437738597393035888671875
    X19  R81  0.65926206111907958984375
    X19  R82  0.490539252758026123046875
    X19  R83  0.6429669857025146484375
    X19  R84  0.562315046787261962890625
    X19  R85  0.3041373789310455322265625
    X19  R86  0.38855135440826416015625
    X19  R87  0.3036119937896728515625
    X19  R88  -0.24843414127826690673828125
    X19  R89  0.2333090603351593017578125
    X19  R90  0.300981462001800537109375
    X19  R91  0.08057947456836700439453125
    X19  R92  0.1521752178668975830078125
    X19  R93  0.65948164463043212890625
    X19  R94  -0.7010958194732666015625
    X19  R95  0.59597337245941162109375
    X19  R96  0.013207555748522281646728515625
    X19  R97  -0.4493756592273712158203125
    X19  R98  0.2079231441020965576171875
    X19  R99  0.37422084808349609375
    X19  R100  -0.035801947116851806640625
    X19  R101  0.3659763336181640625
    X19  R102  -0.267037212848663330078125
    X19  R103  -0.471133649349212646484375
    X19  R104  0.477264583110809326171875
    X19  R105  -0.61882174015045166015625
    X19  R106  0.60290968418121337890625
    X19  R107  0.255054295063018798828125
    X19  R108  0.628629267215728759765625
    X19  R109  0.60737144947052001953125
    X19  R110  -0.5441086292266845703125
    X19  R111  0.651622474193572998046875
    X19  R112  1.06033337116241455078125
    X19  R113  0.17964397370815277099609375
    X19  R114  -0.086955018341541290283203125
    X19  R115  -0.02399849705398082733154296875
    X19  R116  0.0545944534242153167724609375
    X19  R117  0.3914403021335601806640625
    X19  R118  -0.563567101955413818359375
    X19  R119  0.622101247310638427734375
    X19  R120  0.677124679088592529296875
    X19  R121  0.551349103450775146484375
    X19  R122  0.3994729816913604736328125
    X19  R123  -0.670799314975738525390625
    X19  R124  -0.14008717238903045654296875
    X19  R125  0.2893121540546417236328125
    X19  R126  0.2792650759220123291015625
    X19  R127  -0.185451030731201171875
    X20  COST  0
    X20  R0  -0.2019815742969512939453125
    X20  R1  -0.33871996402740478515625
    X20  R2  -0.103656448423862457275390625
    X20  R3  -0.357565104961395263671875
    X20  R4  0.3770382106304168701171875
    X20  R5  -0.4183762371540069580078125
    X20  R6  0.11289353668689727783203125
    X20  R7  0.072765626013278961181640625
    X20  R8  -0.4225066602230072021484375
    X20  R9  -0.259299814701080322265625
    X20  R10  0.3706932961940765380859375
    X20  R11  0.4941252171993255615234375
    X20  R12  -0.1630239188671112060546875
    X20  R13  0.623094856739044189453125
    X20  R14  -0.18595580756664276123046875
    X20  R15  0.02286995947360992431640625
    X20  R16  -0.4833407700061798095703125
    X20  R17  -0.086688816547393798828125
    X20  R18  -0.3596003353595733642578125
    X20  R19  -0.24723474681377410888671875
    X20  R20  -0.012298936955630779266357421875
    X20  R21  -0.2564775645732879638671875
    X20  R22  -0.078670121729373931884765625
    X20  R23  -0.2432555854320526123046875
    X20  R24  0.3436877429485321044921875
    X20  R25  0.0462099425494670867919921875
    X20  R26  -0.3711343109607696533203125
    X20  R27  0.33815157413482666015625
    X20  R28  -0.398825109004974365234375
    X20  R29  0.530322611331939697265625
    X20  R30  -0.316174566745758056640625
    X20  R31  -0.083013929426670074462890625
    X20  R32  -0.2767007350921630859375
    X20  R33  0.1422464847564697265625
    X20  R34  -0.703383266925811767578125
    X20  R35  0.36405718326568603515625
    X20  R36  -0.20199586451053619384765625
    X20  R37  0.551881253719329833984375
    X20  R38  -0.001330115483142435550689697265625
    X20  R39  0.15945065021514892578125
    X20  R40  0.385378777980804443359375
    X20  R41  0.19851233065128326416015625
    X20  R42  0.1077252924442291259765625
    X20  R43  0.6289284229278564453125
    X20  R44  -0.098540402948856353759765625
    X20  R45  -0.1972653865814208984375
    X20  R46  0.2716847360134124755859375
    X20  R47  -0.4200369417667388916015625
    X20  R48  -0.0349908061325550079345703125
    X20  R49  0.212348043918609619140625
    X20  R50  0.732029855251312255859375
    X20  R51  -0.15520076453685760498046875
    X20  R52  -0.1755306720733642578125
    X20  R53  0.068269707262516021728515625
    X20  R54  -0.357156455516815185546875
    X20  R55  0.963146507740020751953125
    X20  R56  -0.07070182263851165771484375
    X20  R57  -0.15974058210849761962890625
    X20  R58  0.4915303885936737060546875
    X20  R59  -0.14001546800136566162109375
    X20  R60  0.043908782303333282470703125
    X20  R61  -0.2395338714122772216796875
    X20  R62  0.614145815372467041015625
    X20  R63  -0.14132125675678253173828125
    X20  R64  0.03733931481838226318359375
    X20  R65  -0.7346165180206298828125
    X20  R66  -0.631771147251129150390625
    X20  R67  -0.30020654201507568359375
    X20  R68  0.319579899311065673828125
    X20  R69  -0.370771586894989013671875
    X20  R70  -0.0451417528092861175537109375
    X20  R71  -0.4504600465297698974609375
    X20  R72  -0.16864080727100372314453125
    X20  R73  0.3916642367839813232421875
    X20  R74  0.694426596164703369140625
    X20  R75  -0.068542003631591796875
    X20  R76  -0.1200797557830810546875
    X20  R77  -0.55232727527618408203125
    X20  R78  -0.3118894100189208984375
    X20  R79  0.799874365329742431640625
    X20  R80  -0.31255424022674560546875
    X20  R81  -0.05781686305999755859375
    X20  R82  -0.16676174104213714599609375
    X20  R83  0.00817098654806613922119140625
    X20  R84  0.117738030850887298583984375
    X20  R85  0.15633086860179901123046875
    X20  R86  -0.175133883953094482421875
    X20  R87  0.020158447325229644775390625
    X20  R88  0.498111903667449951171875
    X20  R89  0.08637519180774688720703125
    X20  R90  0.454435050487518310546875
    X20  R91  -0.13357253372669219970703125
    X20  R92  -0.34791052341461181640625
    X20  R93  -0.683187186717987060546875
    X20  R94  -0.309366405010223388671875
    X20  R95  -0.3678243160247802734375
    X20  R96  0.076812870800495147705078125
    X20  R97  -0.274048149585723876953125
    X20  R98  -0.21824534237384796142578125
    X20  R99  0.121855683624744415283203125
    X20  R100  0.066809631884098052978515625
    X20  R101  0.4655040800571441650390625
    X20  R102  0.278323709964752197265625
    X20  R103  0.25236713886260986328125
    X20  R104  0.084476746618747711181640625
    X20  R105  -0.80596482753753662109375
    X20  R106  -0.3019464015960693359375
    X20  R107  -0.168855488300323486328125
    X20  R108  -0.3859913349151611328125
    X20  R109  0.3438207209110260009765625
    X20  R110  -0.519817531108856201171875
    X20  R111  -0.571072399616241455078125
    X20  R112  -0.62848663330078125
    X20  R113  0.4492497742176055908203125
    X20  R114  0.3351865112781524658203125
    X20  R115  0.5261766910552978515625
    X20  R116  0.2698806226253509521484375
    X20  R117  0.069324314594268798828125
    X20  R118  0.24393427371978759765625
    X20  R119  -0.20298127830028533935546875
    X20  R120  0.29147064685821533203125
    X20  R121  -0.009299353696405887603759765625
    X20  R122  0.24541492760181427001953125
    X20  R123  -0.652129113674163818359375
    X20  R124  0.174893319606781005859375
    X20  R125  -0.0365580879151821136474609375
    X20  R126  0.112593807280063629150390625
    X20  R127  -0.1350026428699493408203125
    X21  COST  0
    X21  R0  -0.580520212650299072265625
    X21  R1  -0.778026163578033447265625
    X21  R2  -0.267520964145660400390625
    X21  R3  0.319157779216766357421875
    X21  R4  0.23373924195766448974609375
    X21  R5  0.353399753570556640625
    X21  R6  0.47024071216583251953125
    X21  R7  0.05844318866729736328125
    X21  R8  -0.3632043302059173583984375
    X21  R9  -0.089850448071956634521484375
    X21  R10  -0.1006300747394561767578125
    X21  R11  -0.3107160031795501708984375
    X21  R12  -0.0739064514636993408203125
    X21  R13  -0.2598052322864532470703125
    X21  R14  -0.3780222833156585693359375
    X21  R15  -0.22647075355052947998046875
    X21  R16  -0.753553569316864013671875
    X21  R17  0.00540722720324993133544921875
    X21  R18  -0.842008173465728759765625
    X21  R19  0.366225659847259521484375
    X21  R20  -0.41559112071990966796875
    X21  R21  -0.110362745821475982666015625
    X21  R22  -0.021980501711368560791015625
    X21  R23  -0.07966051995754241943359375
    X21  R24  -0.21167479455471038818359375
    X21  R25  -0.2694272696971893310546875
    X21  R26  0.4925439655780792236328125
    X21  R27  0.13430459797382354736328125
    X21  R28  -0.4224291741847991943359375
    X21  R29  0.16107176244258880615234375
    X21  R30  -0.1104402244091033935546875
    X21  R31  -0.543992459774017333984375
    X21  R32  -0.383660793304443359375
    X21  R33  0.104261815547943115234375
    X21  R34  -0.3149850368499755859375
    X21  R35  0.258633315563201904296875
    X21  R36  -0.55372655391693115234375
    X21  R37  0.09468448162078857421875
    X21  R38  0.593908786773681640625
    X21  R39  -0.791787087917327880859375
    X21  R40  0.375388562679290771484375
    X21  R41  0.662816345691680908203125
    X21  R42  0.14017032086849212646484375
    X21  R43  -0.110030390322208404541015625
    X21  R44  -0.0540552437305450439453125
    X21  R45  -0.1537666022777557373046875
    X21  R46  -0.704130947589874267578125
    X21  R47  0.111741006374359130859375
    X21  R48  -0.3228237628936767578125
    X21  R49  -0.12464503943920135498046875
    X21  R50  -0.64480435848236083984375
    X21  R51  0.16059447824954986572265625
    X21  R52  0.084019578993320465087890625
    X21  R53  0.39845407009124755859375
    X21  R54  -0.511347353458404541015625
    X21  R55  0.13467322289943695068359375
    X21  R56  0.69864559173583984375
    X21  R57  -0.24379159510135650634765625
    X21  R58  0.3247142732143402099609375
    X21  R59  -0.18640394508838653564453125
    X21  R60  -0.057088650763034820556640625
    X21  R61  -0.01219781301915645599365234375
    X21  R62  -0.3093840181827545166015625
    X21  R63  0.066121436655521392822265625
    X21  R64  0.0854982435703277587890625
    X21  R65  -0.4753524959087371826171875
    X21  R66  -0.3345656692981719970703125
    X21  R67  0.2707236707210540771484375
    X21  R68  -0.23632402718067169189453125
    X21  R69  0.3745130002498626708984375
    X21  R70  0.2301110923290252685546875
    X21  R71  0.4091406166553497314453125
    X21  R72  -0.067751415073871612548828125
    X21  R73  -0.567233622074127197265625
    X21  R74  0.099588640034198760986328125
    X21  R75  -0.4942634999752044677734375
    X21  R76  -0.15581762790679931640625
    X21  R77  0.124407060444355010986328125
    X21  R78  -0.15747345983982086181640625
    X21  R79  0.1433735787868499755859375
    X21  R80  0.456028044223785400390625
    X21  R81  -0.102635204792022705078125
    X21  R82  0.17008380591869354248046875
    X21  R83  -0.524285495281219482421875
    X21  R84  0.0172646529972553253173828125
    X21  R85  0.2115348279476165771484375
    X21  R86  0.23877401649951934814453125
    X21  R87  -0.5042724609375
    X21  R88  -0.10919250547885894775390625
    X21  R89  0.01702652685344219207763671875
    X21  R90  0.570836722850799560546875
    X21  R91  0.21684129536151885986328125
    X21  R92  0.1540368497371673583984375
    X21  R93  0.057700671255588531494140625
    X21  R94  -0.3613382875919342041015625
    X21  R95  0.0205938518047332763671875
    X21  R96  -0.78331053256988525390625
    X21  R97  0.091180481016635894775390625
    X21  R98  -0.0021414491347968578338623046875
    X21  R99  -0.23714435100555419921875
    X21  R100  -0.0038609686307609081268310546875
    X21  R101  -0.0049031176604330539703369140625
    X21  R102  -0.338333308696746826171875
    X21  R103  0.0053075817413628101348876953125
    X21  R104  0.2635566294193267822265625
    X21  R105  0.356585919857025146484375
    X21  R106  -0.00311848358251154422760009765625
    X21  R107  -0.341793119907379150390625
    X21  R108  0.21264053881168365478515625
    X21  R109  0.0500230491161346435546875
    X21  R110  -0.3513341844081878662109375
    X21  R111  -0.312678515911102294921875
    X21  R112  0.154172480106353759765625
    X21  R113  0.4779965877532958984375
    X21  R114  -0.67900264263153076171875
    X21  R115  -0.012885014526546001434326171875
    X21  R116  -0.4260277450084686279296875
    X21  R117  0.2979024350643157958984375
    X21  R118  -0.854562342166900634765625
    X21  R119  -0.4655730724334716796875
    X21  R120  0.12642119824886322021484375
    X21  R121  -0.65944802761077880859375
    X21  R122  0.147959172725677490234375
    X21  R123  -0.4571054279804229736328125
    X21  R124  0.18335545063018798828125
    X21  R125  -0.0024044443853199481964111328125
    X21  R126  -0.15537922084331512451171875
    X21  R127  -0.112843327224254608154296875
    X22  COST  0
    X22  R0  0.884630501270294189453125
    X22  R1  0.41051828861236572265625
    X22  R2  0.5573298931121826171875
    X22  R3  0.4071787297725677490234375
    X22  R4  0.1539305746555328369140625
    X22  R5  -0.5787143707275390625
    X22  R6  -0.3996597230434417724609375
    X22  R7  0.211482346057891845703125
    X22  R8  -0.068001009523868560791015625
    X22  R9  0.101444788277149200439453125
    X22  R10  -0.2940843999385833740234375
    X22  R11  0.06315530836582183837890625
    X22  R12  0.2194107472896575927734375
    X22  R13  -0.515614032745361328125
    X22  R14  -0.18242920935153961181640625
    X22  R15  0.2575404345989227294921875
    X22  R16  0.456409752368927001953125
    X22  R17  -0.17448158562183380126953125
    X22  R18  0.4565759003162384033203125
    X22  R19  -0.2101087272167205810546875
    X22  R20  0.482060492038726806640625
    X22  R21  -0.067496359348297119140625
    X22  R22  0.0382214151322841644287109375
    X22  R23  0.393192946910858154296875
    X22  R24  -0.68825137615203857421875
    X22  R25  0.70798504352569580078125
    X22  R26  0.1725793182849884033203125
    X22  R27  -0.0487045943737030029296875
    X22  R28  0.33565044403076171875
    X22  R29  0.611568629741668701171875
    X22  R30  0.0490910224616527557373046875
    X22  R31  -0.4640251100063323974609375
    X22  R32  0.4205394685268402099609375
    X22  R33  -0.077086158096790313720703125
    X22  R34  0.0615558736026287078857421875
    X22  R35  0.01270660571753978729248046875
    X22  R36  0.4808885157108306884765625
    X22  R37  -0.4637978971004486083984375
    X22  R38  0.4726883471012115478515625
    X22  R39  -0.403042972087860107421875
    X22  R40  -0.276887118816375732421875
    X22  R41  -0.084402538836002349853515625
    X22  R42  0.14664690196514129638671875
    X22  R43  -0.0017865239642560482025146484375
    X22  R44  0.097999848425388336181640625
    X22  R45  -0.17465360462665557861328125
    X22  R46  -0.1266293227672576904296875
    X22  R47  -0.3942034244537353515625
    X22  R48  -0.0466126464307308197021484375
    X22  R49  -0.289838492870330810546875
    X22  R50  -0.02733795158565044403076171875
    X22  R51  0.684943854808807373046875
    X22  R52  0.16128824651241302490234375
    X22  R53  -0.514238178730010986328125
    X22  R54  -0.669772803783416748046875
    X22  R55  0.0081129632890224456787109375
    X22  R56  -0.1936213076114654541015625
    X22  R57  0.42182886600494384765625
    X22  R58  -0.008795040659606456756591796875
    X22  R59  0.2248828411102294921875
    X22  R60  0.2366884648799896240234375
    X22  R61  -0.0551699511706829071044921875
    X22  R62  0.13371469080448150634765625
    X22  R63  0.0369664020836353302001953125
    X22  R64  0.031578250229358673095703125
    X22  R65  -0.06416733562946319580078125
    X22  R66  0.0387523211538791656494140625
    X22  R67  0.3202421367168426513671875
    X22  R68  0.1149489581584930419921875
    X22  R69  0.1066296994686126708984375
    X22  R70  -0.01762661524116992950439453125
    X22  R71  0.2711265087127685546875
    X22  R72  0.33479702472686767578125
    X22  R73  0.1481177508831024169921875
    X22  R74  0.2891495525836944580078125
    X22  R75  0.131609022617340087890625
    X22  R76  0.163211762905120849609375
    X22  R77  0.1255592405796051025390625
    X22  R78  0.347416460514068603515625
    X22  R79  -0.978734195232391357421875
    X22  R80  0.24538266658782958984375
    X22  R81  -0.2120605409145355224609375
    X22  R82  -0.41299378871917724609375
    X22  R83  0.148527801036834716796875
    X22  R84  0.2526769340038299560546875
    X22  R85  0.4078969061374664306640625
    X22  R86  0.4403556883335113525390625
    X22  R87  -0.3339938223361968994140625
    X22  R88  0.1470648944377899169921875
    X22  R89  -0.3629624545574188232421875
    X22  R90  -0.19102299213409423828125
    X22  R91  0.0455690659582614898681640625
    X22  R92  0.276802539825439453125
    X22  R93  0.54622650146484375
    X22  R94  0.2581944763660430908203125
    X22  R95  -0.013723776675760746002197265625
    X22  R96  0.3391261994838714599609375
    X22  R97  0.3507274091243743896484375
    X22  R98  0.61702835559844970703125
    X22  R99  0.107545308768749237060546875
    X22  R100  -0.121722497045993804931640625
    X22  R101  0.064636074006557464599609375
    X22  R102  0.08688150346279144287109375
    X22  R103  0.12583531439304351806640625
    X22  R104  -0.2256260812282562255859375
    X22  R105  -0.858623504638671875
    X22  R106  0.108603976666927337646484375
    X22  R107  -0.410664081573486328125
    X22  R108  -0.1776476800441741943359375
    X22  R109  -0.0407224260270595550537109375
    X22  R110  -0.67231082916259765625
    X22  R111  0.438759028911590576171875
    X22  R112  0.440250456333160400390625
    X22  R113  -0.2036176025867462158203125
    X22  R114  -0.2480487823486328125
    X22  R115  0.1057215034961700439453125
    X22  R116  0.000178944304934702813625335693359375
    X22  R117  0.16621990501880645751953125
    X22  R118  0.4533575475215911865234375
    X22  R119  0.166466653347015380859375
    X22  R120  -0.103207170963287353515625
    X22  R121  0.816410541534423828125
    X22  R122  -0.111936986446380615234375
    X22  R123  -0.00042884136200882494449615478515625
    X22  R124  -0.13581772148609161376953125
    X22  R125  -0.1429465711116790771484375
    X22  R126  -0.0282049588859081268310546875
    X22  R127  -0.176025450229644775390625
    X23  COST  0
    X23  R0  -0.1401239931583404541015625
    X23  R1  -0.3231469690799713134765625
    X23  R2  0.560092628002166748046875
    X23  R3  0.3504474163055419921875
    X23  R4  0.860685765743255615234375
    X23  R5  0.687082469463348388671875
    X23  R6  0.2078939974308013916015625
    X23  R7  0.579496085643768310546875
    X23  R8  0.780198752880096435546875
    X23  R9  0.4077526032924652099609375
    X23  R10  -0.3804580271244049072265625
    X23  R11  -0.570090770721435546875
    X23  R12  -0.00338239292614161968231201171875
    X23  R13  0.057977892458438873291015625
    X23  R14  0.0685154497623443603515625
    X23  R15  -0.640604436397552490234375
    X23  R16  -0.68455255031585693359375
    X23  R17  0.12658083438873291015625
    X23  R18  -0.603023529052734375
    X23  R19  -0.0489043258130550384521484375
    X23  R20  -0.24839498102664947509765625
    X23  R21  -0.18669320642948150634765625
    X23  R22  0.3828181326389312744140625
    X23  R23  -0.2704187333583831787109375
    X23  R24  -0.378309726715087890625
    X23  R25  -0.6932871341705322265625
    X23  R26  0.20528519153594970703125
    X23  R27  0.5779392719268798828125
    X23  R28  -0.01836501620709896087646484375
    X23  R29  -0.37527883052825927734375
    X23  R30  0.2920228540897369384765625
    X23  R31  0.3229739665985107421875
    X23  R32  -0.052230142056941986083984375
    X23  R33  0.7291390895843505859375
    X23  R34  0.2281276881694793701171875
    X23  R35  0.4301393926143646240234375
    X23  R36  -0.465224087238311767578125
    X23  R37  -0.190576851367950439453125
    X23  R38  0.534945011138916015625
    X23  R39  -0.14708520472049713134765625
    X23  R40  -0.204915106296539306640625
    X23  R41  0.1466877758502960205078125
    X23  R42  0.2872009575366973876953125
    X23  R43  -0.258190929889678955078125
    X23  R44  0.2747206389904022216796875
    X23  R45  0.011919421143829822540283203125
    X23  R46  -0.23848949372768402099609375
    X23  R47  0.015513916499912738800048828125
    X23  R48  0.15842010080814361572265625
    X23  R49  -0.57882249355316162109375
    X23  R50  0.014197661541402339935302734375
    X23  R51  -0.384379208087921142578125
    X23  R52  0.22328679263591766357421875
    X23  R53  0.258258879184722900390625
    X23  R54  -0.254989087581634521484375
    X23  R55  0.2283566296100616455078125
    X23  R56  -0.711451709270477294921875
    X23  R57  0.09156893193721771240234375
    X23  R58  0.073884718120098114013671875
    X23  R59  -0.63646304607391357421875
    X23  R60  -0.0433142371475696563720703125
    X23  R61  0.4401757717132568359375
    X23  R62  -0.267568886280059814453125
    X23  R63  0.077309191226959228515625
    X23  R64  0.16720585525035858154296875
    X23  R65  0.491609394550323486328125
    X23  R66  -0.16390068829059600830078125
    X23  R67  0.620805323123931884765625
    X23  R68  -0.75341737270355224609375
    X23  R69  -0.67534959316253662109375
    X23  R70  0.4747313559055328369140625
    X23  R71  0.15924032032489776611328125
    X23  R72  0.707214057445526123046875
    X23  R73  -0.109537549316883087158203125
    X23  R74  -0.306247532367706298828125
    X23  R75  0.100260071456432342529296875
    X23  R76  0.3432459533214569091796875
    X23  R77  0.2764056026935577392578125
    X23  R78  0.4066733419895172119140625
    X23  R79  0.01993189752101898193359375
    X23  R80  -0.428979396820068359375
    X23  R81  0.66030538082122802734375
    X23  R82  0.1905063688755035400390625
    X23  R83  -0.065883100032806396484375
    X23  R84  -0.13023550808429718017578125
    X23  R85  0.729931652545928955078125
    X23  R86  -0.108885921537876129150390625
    X23  R87  -0.17543832957744598388671875
    X23  R88  0.2457891404628753662109375
    X23  R89  -0.358913719654083251953125
    X23  R90  0.223522663116455078125
    X23  R91  -0.009214260615408420562744140625
    X23  R92  0.683978974819183349609375
    X23  R93  -0.215140879154205322265625
    X23  R94  -0.2630999088287353515625
    X23  R95  0.3390268385410308837890625
    X23  R96  0.693193733692169189453125
    X23  R97  1.05541121959686279296875
    X23  R98  -0.12831592559814453125
    X23  R99  -0.00716825760900974273681640625
    X23  R100  -0.0682063996791839599609375
    X23  R101  0.0070569445379078388214111328125
    X23  R102  -0.51760280132293701171875
    X23  R103  0.548670709133148193359375
    X23  R104  0.15085081756114959716796875
    X23  R105  0.0871628820896148681640625
    X23  R106  0.68827760219573974609375
    X23  R107  -0.746471345424652099609375
    X23  R108  -0.261044025421142578125
    X23  R109  0.3030109405517578125
    X23  R110  0.205113708972930908203125
    X23  R111  0.049129076302051544189453125
    X23  R112  0.3091648519039154052734375
    X23  R113  0.16624306142330169677734375
    X23  R114  0.0617956221103668212890625
    X23  R115  0.732391893863677978515625
    X23  R116  -0.034924097359180450439453125
    X23  R117  1.08578598499298095703125
    X23  R118  0.0287901125848293304443359375
    X23  R119  0.03117005527019500732421875
    X23  R120  0.036459736526012420654296875
    X23  R121  -0.1390745937824249267578125
    X23  R122  0.5609347820281982421875
    X23  R123  0.798797905445098876953125
    X23  R124  -0.3091314136981964111328125
    X23  R125  -0.15872585773468017578125
    X23  R126  0.02162402682006359100341796875
    X23  R127  -0.178129017353057861328125
    X24  COST  0
    X24  R0  -0.008417089469730854034423828125
    X24  R1  -0.235434234142303466796875
    X24  R2  0.2475427091121673583984375
    X24  R3  -0.60747659206390380859375
    X24  R4  -0.22300134599208831787109375
    X24  R5  -0.5665032863616943359375
    X24  R6  0.27674996852874755859375
    X24  R7  -0.79943168163299560546875
    X24  R8  -0.780980527400970458984375
    X24  R9  -0.069455437362194061279296875
    X24  R10  0.521068036556243896484375
    X24  R11  0.2397606372833251953125
    X24  R12  -0.4541892707347869873046875
    X24  R13  -0.340848386287689208984375
    X24  R14  0.4415805339813232421875
    X24  R15  0.477608203887939453125
    X24  R16  0.4048227369785308837890625
    X24  R17  -0.269970953464508056640625
    X24  R18  0.4799430668354034423828125
    X24  R19  -0.3894774615764617919921875
    X24  R20  -0.21031732857227325439453125
    X24  R21  -0.290948688983917236328125
    X24  R22  -0.2576343715190887451171875
    X24  R23  0.1727502346038818359375
    X24  R24  -0.389244973659515380859375
    X24  R25  0.5803215503692626953125
    X24  R26  0.080963201820850372314453125
    X24  R27  0.0477331168949604034423828125
    X24  R28  -0.49856936931610107421875
    X24  R29  -0.052928544580936431884765625
    X24  R30  0.03138308227062225341796875
    X24  R31  -0.687673747539520263671875
    X24  R32  -0.3593610227108001708984375
    X24  R33  0.16612620651721954345703125
    X24  R34  -0.0327454619109630584716796875
    X24  R35  0.073007442057132720947265625
    X24  R36  0.007055102847516536712646484375
    X24  R37  -0.083426363766193389892578125
    X24  R38  -0.17411553859710693359375
    X24  R39  -0.18826262652873992919921875
    X24  R40  0.068857252597808837890625
    X24  R41  -0.3470720946788787841796875
    X24  R42  -0.2293112576007843017578125
    X24  R43  0.618678629398345947265625
    X24  R44  0.0229238010942935943603515625
    X24  R45  0.13045035302639007568359375
    X24  R46  0.1041359007358551025390625
    X24  R47  -0.0300986953079700469970703125
    X24  R48  -0.1018770635128021240234375
    X24  R49  -0.10973918437957763671875
    X24  R50  0.350807130336761474609375
    X24  R51  0.0633344352245330810546875
    X24  R52  -0.4120026528835296630859375
    X24  R53  -0.4941326081752777099609375
    X24  R54  -0.390681922435760498046875
    X24  R55  0.29469287395477294921875
    X24  R56  -0.736597120761871337890625
    X24  R57  0.14013941586017608642578125
    X24  R58  0.2677764594554901123046875
    X24  R59  0.3899083435535430908203125
    X24  R60  0.20927520096302032470703125
    X24  R61  -0.618722736835479736328125
    X24  R62  0.445262253284454345703125
    X24  R63  -0.262783586978912353515625
    X24  R64  -0.2489760816097259521484375
    X24  R65  -0.097995579242706298828125
    X24  R66  -0.0336661748588085174560546875
    X24  R67  -0.24251298606395721435546875
    X24  R68  0.23454825580120086669921875
    X24  R69  -0.3988302648067474365234375
    X24  R70  -0.011112633161246776580810546875
    X24  R71  -0.27273285388946533203125
    X24  R72  -0.3605196774005889892578125
    X24  R73  0.3063102066516876220703125
    X24  R74  0.306307971477508544921875
    X24  R75  0.7379062175750732421875
    X24  R76  0.123070158064365386962890625
    X24  R77  -0.3424460887908935546875
    X24  R78  -0.08366875350475311279296875
    X24  R79  0.12927806377410888671875
    X24  R80  -0.2830425798892974853515625
    X24  R81  0.2466075718402862548828125
    X24  R82  -0.00252538756467401981353759765625
    X24  R83  -0.4941825568675994873046875
    X24  R84  -0.322412312030792236328125
    X24  R85  0.18360294401645660400390625
    X24  R86  -0.5925076007843017578125
    X24  R87  -0.5376875400543212890625
    X24  R88  -0.02723908238112926483154296875
    X24  R89  -0.2323963344097137451171875
    X24  R90  -0.0003158941981382668018341064453125
    X24  R91  -0.4272715151309967041015625
    X24  R92  -0.23402416706085205078125
    X24  R93  -0.5142109394073486328125
    X24  R94  0.17515535652637481689453125
    X24  R95  -0.3269441425800323486328125
    X24  R96  0.738263785839080810546875
    X24  R97  -0.4566096961498260498046875
    X24  R98  -0.1339648663997650146484375
    X24  R99  -0.52977550029754638671875
    X24  R100  0.009153566323220729827880859375
    X24  R101  -0.122489802539348602294921875
    X24  R102  0.511270582675933837890625
    X24  R103  0.4933936595916748046875
    X24  R104  -0.2851424515247344970703125
    X24  R105  -0.406484663486480712890625
    X24  R106  -0.52360260486602783203125
    X24  R107  0.13197989761829376220703125
    X24  R108  -0.61048209667205810546875
    X24  R109  -0.1189018189907073974609375
    X24  R110  -0.3236642181873321533203125
    X24  R111  -0.326994478702545166015625
    X24  R112  -0.425690948963165283203125
    X24  R113  -0.13117136061191558837890625
    X24  R114  0.582074463367462158203125
    X24  R115  0.1091267168521881103515625
    X24  R116  -0.541206836700439453125
    X24  R117  -0.14253164827823638916015625
    X24  R118  0.4331592619419097900390625
    X24  R119  -0.1411971151828765869140625
    X24  R120  -0.2939126491546630859375
    X24  R121  -0.2972404062747955322265625
    X24  R122  -0.004875845275819301605224609375
    X24  R123  -0.549006879329681396484375
    X24  R124  0.1312728226184844970703125
    X24  R125  -0.22949583828449249267578125
    X24  R126  0.039251737296581268310546875
    X24  R127  -0.04472337663173675537109375
    X25  COST  0
    X25  R0  0.290440618991851806640625
    X25  R1  -0.3034587204456329345703125
    X25  R2  -0.48763644695281982421875
    X25  R3  -0.3166464269161224365234375
    X25  R4  0.4328348636627197265625
    X25  R5  -0.549334347248077392578125
    X25  R6  0.1644907891750335693359375
    X25  R7  0.676915585994720458984375
    X25  R8  0.46321237087249755859375
    X25  R9  0.21027110517024993896484375
    X25  R10  -0.79768216609954833984375
    X25  R11  -0.39353430271148681640625
    X25  R12  -0.265691459178924560546875
    X25  R13  0.042522154748439788818359375
    X25  R14  0.5022385120391845703125
    X25  R15  0.1014023721218109130859375
    X25  R16  -0.0777302086353302001953125
    X25  R17  0.12338207662105560302734375
    X25  R18  0.8847692012786865234375
    X25  R19  0.147374212741851806640625
    X25  R20  0.624422848224639892578125
    X25  R21  0.01962084881961345672607421875
    X25  R22  0.3024120628833770751953125
    X25  R23  0.4879471957683563232421875
    X25  R24  -0.516313612461090087890625
    X25  R25  0.24883879721164703369140625
    X25  R26  0.443592250347137451171875
    X25  R27  0.0542398653924465179443359375
    X25  R28  0.3800596892833709716796875
    X25  R29  0.2566809952259063720703125
    X25  R30  0.16282077133655548095703125
    X25  R31  -0.108268029987812042236328125
    X25  R32  0.534133613109588623046875
    X25  R33  -0.13959075510501861572265625
    X25  R34  0.6095864772796630859375
    X25  R35  -0.16085945069789886474609375
    X25  R36  -0.1774124801158905029296875
    X25  R37  -0.2632129192352294921875
    X25  R38  -0.0943029820919036865234375
    X25  R39  -0.1748001277446746826171875
    X25  R40  0.94896602630615234375
    X25  R41  0.10746790468692779541015625
    X25  R42  0.114115573465824127197265625
    X25  R43  -0.432347834110260009765625
    X25  R44  0.3964955806732177734375
    X25  R45  0.815442144870758056640625
    X25  R46  -0.1870079934597015380859375
    X25  R47  0.7104566097259521484375
    X25  R48  0.541063368320465087890625
    X25  R49  -0.25205457210540771484375
    X25  R50  0.264402866363525390625
    X25  R51  0.319077968597412109375
    X25  R52  0.198125898838043212890625
    X25  R53  0.870798587799072265625
    X25  R54  -0.2549853026866912841796875
    X25  R55  -0.947840273380279541015625
    X25  R56  -0.294366300106048583984375
    X25  R57  0.2108324468135833740234375
    X25  R58  0.103401802480220794677734375
    X25  R59  -0.3423646390438079833984375
    X25  R60  0.7468612194061279296875
    X25  R61  -0.328577578067779541015625
    X25  R62  -0.2925289571285247802734375
    X25  R63  0.17483694851398468017578125
    X25  R64  0.567419826984405517578125
    X25  R65  0.14020265638828277587890625
    X25  R66  0.550304353237152099609375
    X25  R67  -0.3904187381267547607421875
    X25  R68  -0.0059648943133652210235595703125
    X25  R69  -0.1900575459003448486328125
    X25  R70  0.329329431056976318359375
    X25  R71  0.2988209426403045654296875
    X25  R72  -0.3003692626953125
    X25  R73  0.427614390850067138671875
    X25  R74  0.15300174057483673095703125
    X25  R75  0.22049911320209503173828125
    X25  R76  -0.052165247499942779541015625
    X25  R77  -0.2686832845211029052734375
    X25  R78  0.1511059701442718505859375
    X25  R79  -0.63370990753173828125
    X25  R80  0.4572702348232269287109375
    X25  R81  0.6047203540802001953125
    X25  R82  0.330310642719268798828125
    X25  R83  0.0576006509363651275634765625
    X25  R84  0.4065357744693756103515625
    X25  R85  0.13739861547946929931640625
    X25  R86  0.4777809083461761474609375
    X25  R87  -0.3537617027759552001953125
    X25  R88  0.03975547850131988525390625
    X25  R89  -0.09834754467010498046875
    X25  R90  -0.302397310733795166015625
    X25  R91  -0.088967911899089813232421875
    X25  R92  -0.49242579936981201171875
    X25  R93  0.505090177059173583984375
    X25  R94  -0.072813428938388824462890625
    X25  R95  -0.1342217028141021728515625
    X25  R96  0.40455877780914306640625
    X25  R97  0.702120125293731689453125
    X25  R98  0.038759775459766387939453125
    X25  R99  -0.4642523825168609619140625
    X25  R100  0.4501342475414276123046875
    X25  R101  0.4434328973293304443359375
    X25  R102  -0.149040639400482177734375
    X25  R103  -0.22781230509281158447265625
    X25  R104  -0.0123857893049716949462890625
    X25  R105  -0.479864895343780517578125
    X25  R106  -0.77562415599822998046875
    X25  R107  -0.6949446201324462890625
    X25  R108  0.23994185030460357666015625
    X25  R109  0.2930126488208770751953125
    X25  R110  -0.167012274265289306640625
    X25  R111  0.840489804744720458984375
    X25  R112  0.2701692283153533935546875
    X25  R113  0.3089103400707244873046875
    X25  R114  0.834652841091156005859375
    X25  R115  -0.2800309360027313232421875
    X25  R116  -0.067336313426494598388671875
    X25  R117  -0.602210223674774169921875
    X25  R118  0.17323328554630279541015625
    X25  R119  -0.0603317804634571075439453125
    X25  R120  0.260988771915435791015625
    X25  R121  0.2510077953338623046875
    X25  R122  0.035500459372997283935546875
    X25  R123  0.0879914462566375732421875
    X25  R124  0.11922137439250946044921875
    X25  R125  0.637624919414520263671875
    X25  R126  0.077681384980678558349609375
    X25  R127  0.531771242618560791015625
    X26  COST  0
    X26  R0  -0.554050266742706298828125
    X26  R1  -0.06802798807621002197265625
    X26  R2  -0.3174609243869781494140625
    X26  R3  -0.42377674579620361328125
    X26  R4  0.300446987152099609375
    X26  R5  -0.10832791030406951904296875
    X26  R6  0.21643292903900146484375
    X26  R7  0.76551520824432373046875
    X26  R8  0.0622867010533809661865234375
    X26  R9  -0.066626727581024169921875
    X26  R10  0.3072901070117950439453125
    X26  R11  -0.15723218023777008056640625
    X26  R12  -0.3043420314788818359375
    X26  R13  0.1537775099277496337890625
    X26  R14  0.619092881679534912109375
    X26  R15  0.67903029918670654296875
    X26  R16  0.0530564524233341217041015625
    X26  R17  0.624763309955596923828125
    X26  R18  0.21020413935184478759765625
    X26  R19  0.3692505061626434326171875
    X26  R20  0.4564783871173858642578125
    X26  R21  0.13123919069766998291015625
    X26  R22  0.07803921401500701904296875
    X26  R23  0.652626514434814453125
    X26  R24  -0.3922072350978851318359375
    X26  R25  0.681359589099884033203125
    X26  R26  0.2291782796382904052734375
    X26  R27  0.12302853167057037353515625
    X26  R28  0.16094584763050079345703125
    X26  R29  0.50660741329193115234375
    X26  R30  -0.0361175872385501861572265625
    X26  R31  -0.971645891666412353515625
    X26  R32  -0.535513401031494140625
    X26  R33  0.3429396152496337890625
    X26  R34  -0.0500225611031055450439453125
    X26  R35  0.605941951274871826171875
    X26  R36  0.3899075090885162353515625
    X26  R37  0.4215544760227203369140625
    X26  R38  -0.553238391876220703125
    X26  R39  0.17376749217510223388671875
    X26  R40  0.316792011260986328125
    X26  R41  0.020576454699039459228515625
    X26  R42  0.1367880403995513916015625
    X26  R43  0.3027964532375335693359375
    X26  R44  0.01055712811648845672607421875
    X26  R45  -0.21272408962249755859375
    X26  R46  0.61588895320892333984375
    X26  R47  0.437488734722137451171875
    X26  R48  0.408467829227447509765625
    X26  R49  0.454686105251312255859375
    X26  R50  0.60148274898529052734375
    X26  R51  0.09741003811359405517578125
    X26  R52  -0.127281010150909423828125
    X26  R53  0.980347692966461181640625
    X26  R54  -0.7601783275604248046875
    X26  R55  -0.314997136592864990234375
    X26  R56  -0.2301949560642242431640625
    X26  R57  0.2701413333415985107421875
    X26  R58  0.538459360599517822265625
    X26  R59  0.3474992215633392333984375
    X26  R60  0.3466916978359222412109375
    X26  R61  -0.3113109767436981201171875
    X26  R62  0.20825745165348052978515625
    X26  R63  0.1851319372653961181640625
    X26  R64  0.634061515331268310546875
    X26  R65  0.3328589498996734619140625
    X26  R66  -0.17776572704315185546875
    X26  R67  -0.41200673580169677734375
    X26  R68  0.38117372989654541015625
    X26  R69  -0.1806012094020843505859375
    X26  R70  -0.245392620563507080078125
    X26  R71  -0.2846795618534088134765625
    X26  R72  -0.4568080604076385498046875
    X26  R73  0.2536468803882598876953125
    X26  R74  0.417650282382965087890625
    X26  R75  0.626038491725921630859375
    X26  R76  0.3175319135189056396484375
    X26  R77  -0.1899220049381256103515625
    X26  R78  0.22289748489856719970703125
    X26  R79  -0.235797941684722900390625
    X26  R80  -0.30733978748321533203125
    X26  R81  0.13458026945590972900390625
    X26  R82  -0.049413941800594329833984375
    X26  R83  -0.1597484052181243896484375
    X26  R84  0.65990483760833740234375
    X26  R85  0.15095840394496917724609375
    X26  R86  -0.941878020763397216796875
    X26  R87  0.3445658385753631591796875
    X26  R88  0.35608184337615966796875
    X26  R89  0.056552886962890625
    X26  R90  0.3837946355342864990234375
    X26  R91  0.409375727176666259765625
    X26  R92  0.0279067270457744598388671875
    X26  R93  -0.15764461457729339599609375
    X26  R94  0.22918279469013214111328125
    X26  R95  -0.03869359195232391357421875
    X26  R96  0.69259202480316162109375
    X26  R97  -0.2216977775096893310546875
    X26  R98  -0.427498877048492431640625
    X26  R99  -0.0594942830502986907958984375
    X26  R100  0.21974305808544158935546875
    X26  R101  -0.1794705092906951904296875
    X26  R102  -0.3513741195201873779296875
    X26  R103  -0.20548498630523681640625
    X26  R104  0.1591293513774871826171875
    X26  R105  -0.209668099880218505859375
    X26  R106  -0.53656280040740966796875
    X26  R107  -0.314466178417205810546875
    X26  R108  0.4190866947174072265625
    X26  R109  0.21652577817440032958984375
    X26  R110  -0.551964819431304931640625
    X26  R111  -0.4469479620456695556640625
    X26  R112  -0.055021755397319793701171875
    X26  R113  0.41640102863311767578125
    X26  R114  0.4142585694789886474609375
    X26  R115  0.008318121545016765594482421875
    X26  R116  -0.4971030652523040771484375
    X26  R117  -0.133036196231842041015625
    X26  R118  0.591941058635711669921875
    X26  R119  -0.276511847972869873046875
    X26  R120  0.19569273293018341064453125
    X26  R121  -0.391039192676544189453125
    X26  R122  0.49996185302734375
    X26  R123  -0.537217676639556884765625
    X26  R124  0.3404087722301483154296875
    X26  R125  0.075065501034259796142578125
    X26  R126  0.24707686901092529296875
    X26  R127  0.644349038600921630859375
    X27  COST  0
    X27  R0  0.281301975250244140625
    X27  R1  0.4417039453983306884765625
    X27  R2  0.24697722494602203369140625
    X27  R3  -0.0010346504859626293182373046875
    X27  R4  0.1426603496074676513671875
    X27  R5  -0.72278749942779541015625
    X27  R6  -0.20628274977207183837890625
    X27  R7  0.0595506764948368072509765625
    X27  R8  0.0239147208631038665771484375
    X27  R9  0.2385647296905517578125
    X27  R10  -0.0969016253948211669921875
    X27  R11  -0.4883392155170440673828125
    X27  R12  0.1913408935070037841796875
    X27  R13  0.00221293978393077850341796875
    X27  R14  -0.3092403113842010498046875
    X27  R15  0.14752377569675445556640625
    X27  R16  0.2616156637668609619140625
    X27  R17  -0.534961640834808349609375
    X27  R18  -0.4942243993282318115234375
    X27  R19  -0.02024284936487674713134765625
    X27  R20  0.314397037029266357421875
    X27  R21  0.0345563925802707672119140625
    X27  R22  -0.2749221026897430419921875
    X27  R23  0.3509443104267120361328125
    X27  R24  -0.62823617458343505859375
    X27  R25  0.17370283603668212890625
    X27  R26  -0.2160755097866058349609375
    X27  R27  0.104624398052692413330078125
    X27  R28  0.3589473068714141845703125
    X27  R29  0.266020298004150390625
    X27  R30  0.2585451304912567138671875
    X27  R31  -0.686192929744720458984375
    X27  R32  0.661064326763153076171875
    X27  R33  0.074950873851776123046875
    X27  R34  -0.0615765266120433807373046875
    X27  R35  0.063633061945438385009765625
    X27  R36  0.331077754497528076171875
    X27  R37  0.23412500321865081787109375
    X27  R38  -0.3226050436496734619140625
    X27  R39  0.160537540912628173828125
    X27  R40  -0.170526564121246337890625
    X27  R41  0.30661809444427490234375
    X27  R42  0.21779753267765045166015625
    X27  R43  -0.1677595674991607666015625
    X27  R44  0.121704645454883575439453125
    X27  R45  0.511524379253387451171875
    X27  R46  -0.163063228130340576171875
    X27  R47  0.12905170023441314697265625
    X27  R48  0.02223638631403446197509765625
    X27  R49  0.676369190216064453125
    X27  R50  0.550164401531219482421875
    X27  R51  0.2186423838138580322265625
    X27  R52  0.08825092017650604248046875
    X27  R53  0.152111053466796875
    X27  R54  -0.059761993587017059326171875
    X27  R55  -0.3158753216266632080078125
    X27  R56  0.087856240570545196533203125
    X27  R57  0.2528446614742279052734375
    X27  R58  -0.062636159360408782958984375
    X27  R59  0.18773472309112548828125
    X27  R60  0.4185221493244171142578125
    X27  R61  0.084188945591449737548828125
    X27  R62  -0.2945621311664581298828125
    X27  R63  0.2512106597423553466796875
    X27  R64  0.12351314723491668701171875
    X27  R65  0.3280417025089263916015625
    X27  R66  -0.19698159396648406982421875
    X27  R67  -0.246783912181854248046875
    X27  R68  -0.20227114856243133544921875
    X27  R69  0.14467580616474151611328125
    X27  R70  -0.1396396160125732421875
    X27  R71  -0.4449675977230072021484375
    X27  R72  0.0089254938066005706787109375
    X27  R73  0.678915679454803466796875
    X27  R74  -0.2580240666866302490234375
    X27  R75  -0.851515293121337890625
    X27  R76  -0.065815992653369903564453125
    X27  R77  0.31850540637969970703125
    X27  R78  0.00588854961097240447998046875
    X27  R79  -0.36817705631256103515625
    X27  R80  -0.12732017040252685546875
    X27  R81  -0.2866690456867218017578125
    X27  R82  -0.2690585553646087646484375
    X27  R83  -0.267470300197601318359375
    X27  R84  -0.2076473236083984375
    X27  R85  0.2204848825931549072265625
    X27  R86  -0.069555215537548065185546875
    X27  R87  -0.475693523883819580078125
    X27  R88  -0.02004736103117465972900390625
    X27  R89  0.2016727626323699951171875
    X27  R90  -0.21352098882198333740234375
    X27  R91  0.07224817574024200439453125
    X27  R92  -0.3933091461658477783203125
    X27  R93  0.22784356772899627685546875
    X27  R94  0.1882877051830291748046875
    X27  R95  -0.2634530365467071533203125
    X27  R96  -0.569084107875823974609375
    X27  R97  0.08751766383647918701171875
    X27  R98  0.025133669376373291015625
    X27  R99  0.038126684725284576416015625
    X27  R100  0.565148293972015380859375
    X27  R101  -0.1502186954021453857421875
    X27  R102  -0.079517066478729248046875
    X27  R103  0.11329610645771026611328125
    X27  R104  0.20817758142948150634765625
    X27  R105  -0.36603820323944091796875
    X27  R106  -0.19007404148578643798828125
    X27  R107  -0.343146383762359619140625
    X27  R108  -0.18892030417919158935546875
    X27  R109  -0.178839266300201416015625
    X27  R110  0.080026291310787200927734375
    X27  R111  0.566134750843048095703125
    X27  R112  -0.4092817008495330810546875
    X27  R113  -0.123055599629878997802734375
    X27  R114  0.3033151924610137939453125
    X27  R115  0.20202706754207611083984375
    X27  R116  -0.506504833698272705078125
    X27  R117  -0.635148823261260986328125
    X27  R118  -0.244174778461456298828125
    X27  R119  -0.11288441717624664306640625
    X27  R120  -0.4071712195873260498046875
    X27  R121  0.273218333721160888671875
    X27  R122  -0.3736336231231689453125
    X27  R123  0.0221195556223392486572265625
    X27  R124  -0.1764843165874481201171875
    X27  R125  0.4117070138454437255859375
    X27  R126  0.0866903960704803466796875
    X27  R127  -0.0351525358855724334716796875
    X28  COST  0
    X28  R0  -0.3803191483020782470703125
    X28  R1  0.011502734385430812835693359375
    X28  R2  0.879855811595916748046875
    X28  R3  -0.22901995480060577392578125
    X28  R4  0.701997339725494384765625
    X28  R5  0.10239197313785552978515625
    X28  R6  -0.12031672894954681396484375
    X28  R7  0.9260084629058837890625
    X28  R8  -0.3178273737430572509765625
    X28  R9  -0.27080023288726806640625
    X28  R10  0.599900543689727783203125
    X28  R11  0.55236148834228515625
    X28  R12  0.112436473369598388671875
    X28  R13  -0.302916586399078369140625
    X28  R14  -0.2115552127361297607421875
    X28  R15  -0.4936885833740234375
    X28  R16  -0.613654613494873046875
    X28  R17  -0.22176198661327362060546875
    X28  R18  -0.074272930622100830078125
    X28  R19  -0.20230604708194732666015625
    X28  R20  -0.3921029567718505859375
    X28  R21  -0.20615081489086151123046875
    X28  R22  -0.2525102198123931884765625
    X28  R23  0.2309272289276123046875
    X28  R24  0.1788254082202911376953125
    X28  R25  0.730082809925079345703125
    X28  R26  -0.3929649889469146728515625
    X28  R27  0.573285281658172607421875
    X28  R28  -0.4356726706027984619140625
    X28  R29  0.0564206652343273162841796875
    X28  R30  -0.2563180029392242431640625
    X28  R31  -0.22057594358921051025390625
    X28  R32  0.07372629642486572265625
    X28  R33  -0.5644683837890625
    X28  R34  -0.0227961353957653045654296875
    X28  R35  0.3579547703266143798828125
    X28  R36  -0.3696099221706390380859375
    X28  R37  -0.501972854137420654296875
    X28  R38  -0.4189631640911102294921875
    X28  R39  0.00503026507794857025146484375
    X28  R40  -0.69223558902740478515625
    X28  R41  -0.392128407955169677734375
    X28  R42  0.74587857723236083984375
    X28  R43  0.681944906711578369140625
    X28  R44  -0.55936336517333984375
    X28  R45  0.1683618724346160888671875
    X28  R46  -0.1804922521114349365234375
    X28  R47  -0.34797084331512451171875
    X28  R48  -0.338700234889984130859375
    X28  R49  0.0903376638889312744140625
    X28  R50  -0.3631057441234588623046875
    X28  R51  -0.18412692844867706298828125
    X28  R52  -0.09129361808300018310546875
    X28  R53  -0.0534211732447147369384765625
    X28  R54  0.01816510967910289764404296875
    X28  R55  0.782764613628387451171875
    X28  R56  0.275974750518798828125
    X28  R57  -0.109532199800014495849609375
    X28  R58  -0.459253787994384765625
    X28  R59  -0.27991092205047607421875
    X28  R60  -0.1651467978954315185546875
    X28  R61  -0.23497785627841949462890625
    X28  R62  0.767722427845001220703125
    X28  R63  -0.22967784106731414794921875
    X28  R64  -0.2083868086338043212890625
    X28  R65  0.19731628894805908203125
    X28  R66  -0.35889923572540283203125
    X28  R67  -0.044226892292499542236328125
    X28  R68  -0.0189735926687717437744140625
    X28  R69  0.683400571346282958984375
    X28  R70  -0.01286490820348262786865234375
    X28  R71  0.2124558389186859130859375
    X28  R72  -0.200411379337310791015625
    X28  R73  0.070992253720760345458984375
    X28  R74  0.2777390778064727783203125
    X28  R75  -0.559397876262664794921875
    X28  R76  -0.244068205356597900390625
    X28  R77  -0.1701004505157470703125
    X28  R78  -0.314696729183197021484375
    X28  R79  0.84030306339263916015625
    X28  R80  0.2556588947772979736328125
    X28  R81  -0.545333087444305419921875
    X28  R82  -0.055824100971221923828125
    X28  R83  -0.2828952372074127197265625
    X28  R84  0.1416606605052947998046875
    X28  R85  -0.3336492478847503662109375
    X28  R86  -0.0354986004531383514404296875
    X28  R87  0.248913228511810302734375
    X28  R88  0.07185535132884979248046875
    X28  R89  -0.717882215976715087890625
    X28  R90  -0.397821605205535888671875
    X28  R91  0.1715491712093353271484375
    X28  R92  -0.2413641512393951416015625
    X28  R93  0.0500212647020816802978515625
    X28  R94  -0.21438302099704742431640625
    X28  R95  0.177644312381744384765625
    X28  R96  -0.606045424938201904296875
    X28  R97  -0.0931557714939117431640625
    X28  R98  0.007282100617885589599609375
    X28  R99  -0.18189044296741485595703125
    X28  R100  0.13838429749011993408203125
    X28  R101  -0.65625441074371337890625
    X28  R102  0.1028147637844085693359375
    X28  R103  0.89927589893341064453125
    X28  R104  -0.3557412922382354736328125
    X28  R105  -0.614751398563385009765625
    X28  R106  0.021249853074550628662109375
    X28  R107  -0.68144094944000244140625
    X28  R108  0.0678305923938751220703125
    X28  R109  -0.4908249378204345703125
    X28  R110  -0.22673098742961883544921875
    X28  R111  -0.088761724531650543212890625
    X28  R112  -0.22671394050121307373046875
    X28  R113  0.82157075405120849609375
    X28  R114  -0.418836057186126708984375
    X28  R115  -0.0801548659801483154296875
    X28  R116  0.0958718955516815185546875
    X28  R117  -0.3346131742000579833984375
    X28  R118  -0.21159572899341583251953125
    X28  R119  0.0066518671810626983642578125
    X28  R120  -0.587858140468597412109375
    X28  R121  -0.4723870456218719482421875
    X28  R122  -0.621892631053924560546875
    X28  R123  -0.76451671123504638671875
    X28  R124  -0.56084954738616943359375
    X28  R125  -0.1144396364688873291015625
    X28  R126  -0.287770688533782958984375
    X28  R127  -0.0374052338302135467529296875
    X29  COST  0
    X29  R0  0.34148252010345458984375
    X29  R1  0.011643475852906703948974609375
    X29  R2  -0.25122153759002685546875
    X29  R3  -0.33265340328216552734375
    X29  R4  0.31211268901824951171875
    X29  R5  0.22117984294891357421875
    X29  R6  0.15935645997524261474609375
    X29  R7  0.599121153354644775390625
    X29  R8  0.1340233981609344482421875
    X29  R9  -0.3497182428836822509765625
    X29  R10  -0.3472847044467926025390625
    X29  R11  0.476771831512451171875
    X29  R12  0.0242819972336292266845703125
    X29  R13  -0.570817530155181884765625
    X29  R14  0.0512940585613250732421875
    X29  R15  0.612628281116485595703125
    X29  R16  0.1041790544986724853515625
    X29  R17  -0.0553679578006267547607421875
    X29  R18  0.49278891086578369140625
    X29  R19  -0.249682009220123291015625
    X29  R20  0.0698677599430084228515625
    X29  R21  -0.16197974979877471923828125
    X29  R22  0.2638151347637176513671875
    X29  R23  -0.13394628465175628662109375
    X29  R24  0.551462948322296142578125
    X29  R25  0.3084974586963653564453125
    X29  R26  -0.19682110846042633056640625
    X29  R27  0.14615489542484283447265625
    X29  R28  0.3177110850811004638671875
    X29  R29  0.08758471906185150146484375
    X29  R30  -0.3992585241794586181640625
    X29  R31  0.17475490272045135498046875
    X29  R32  0.1569029390811920166015625
    X29  R33  -0.17194207012653350830078125
    X29  R34  0.148171901702880859375
    X29  R35  0.3327411115169525146484375
    X29  R36  0.085329093039035797119140625
    X29  R37  -0.545745849609375
    X29  R38  0.02559900097548961639404296875
    X29  R39  -0.3047805130481719970703125
    X29  R40  -0.3145626485347747802734375
    X29  R41  -0.2862148582935333251953125
    X29  R42  -0.0050743701867759227752685546875
    X29  R43  0.420802891254425048828125
    X29  R44  -0.6610062122344970703125
    X29  R45  -0.12546215951442718505859375
    X29  R46  -0.228595554828643798828125
    X29  R47  -0.68775355815887451171875
    X29  R48  -0.15018446743488311767578125
    X29  R49  -0.085518993437290191650390625
    X29  R50  -0.257320344448089599609375
    X29  R51  -0.0589207671582698822021484375
    X29  R52  0.107101313769817352294921875
    X29  R53  0.19816924631595611572265625
    X29  R54  0.15736643970012664794921875
    X29  R55  0.19382965564727783203125
    X29  R56  0.3010280132293701171875
    X29  R57  -0.067103087902069091796875
    X29  R58  -0.18820472061634063720703125
    X29  R59  -0.31109488010406494140625
    X29  R60  0.086179904639720916748046875
    X29  R61  -0.23911641538143157958984375
    X29  R62  0.5748310089111328125
    X29  R63  -0.339748859405517578125
    X29  R64  0.18814848363399505615234375
    X29  R65  -0.3378582298755645751953125
    X29  R66  0.0320432074368000030517578125
    X29  R67  0.11465738713741302490234375
    X29  R68  0.38893806934356689453125
    X29  R69  0.030222646892070770263671875
    X29  R70  -0.07381880283355712890625
    X29  R71  -0.25237596035003662109375
    X29  R72  -0.15370400249958038330078125
    X29  R73  0.0335787236690521240234375
    X29  R74  0.19337044656276702880859375
    X29  R75  -0.0066042416729032993316650390625
    X29  R76  -0.3270913064479827880859375
    X29  R77  0.2052529156208038330078125
    X29  R78  -0.4370101988315582275390625
    X29  R79  0.378528416156768798828125
    X29  R80  0.591146528720855712890625
    X29  R81  -0.603416025638580322265625
    X29  R82  -0.121879108250141143798828125
    X29  R83  0.508339941501617431640625
    X29  R84  0.40565550327301025390625
    X29  R85  -0.5512139797210693359375
    X29  R86  0.3133591711521148681640625
    X29  R87  -0.11630417406558990478515625
    X29  R88  0.22394849359989166259765625
    X29  R89  -0.3639056980609893798828125
    X29  R90  -0.326238095760345458984375
    X29  R91  -0.366502702236175537109375
    X29  R92  -0.272034585475921630859375
    X29  R93  -0.18752722442150115966796875
    X29  R94  -0.58665287494659423828125
    X29  R95  0.2092569768428802490234375
    X29  R96  -0.161778748035430908203125
    X29  R97  -0.13164080679416656494140625
    X29  R98  0.450761377811431884765625
    X29  R99  -0.619872987270355224609375
    X29  R100  0.0717354714870452880859375
    X29  R101  0.09004460275173187255859375
    X29  R102  0.085690088570117950439453125
    X29  R103  -0.0279140211641788482666015625
    X29  R104  -0.3001706600189208984375
    X29  R105  0.7998046875
    X29  R106  -0.004740444011986255645751953125
    X29  R107  0.618348598480224609375
    X29  R108  -0.006994508206844329833984375
    X29  R109  0.31373536586761474609375
    X29  R110  0.3178647458553314208984375
    X29  R111  0.124823272228240966796875
    X29  R112  0.03060239739716053009033203125
    X29  R113  -0.0503292717039585113525390625
    X29  R114  0.4637305438518524169921875
    X29  R115  -0.13533015549182891845703125
    X29  R116  0.6495978832244873046875
    X29  R117  -0.3444978296756744384765625
    X29  R118  -0.45701634883880615234375
    X29  R119  0.2215656936168670654296875
    X29  R120  0.082976110279560089111328125
    X29  R121  0.5351517200469970703125
    X29  R122  -0.20241701602935791015625
    X29  R123  -0.0551796667277812957763671875
    X29  R124  -0.22468163073062896728515625
    X29  R125  -0.17977033555507659912109375
    X29  R126  -0.2758103907108306884765625
    X29  R127  0.0379353277385234832763671875
    X30  COST  0
    X30  R0  -1
    X30  R128  -1
    X30  R129  -1
    X31  COST  0
    X31  R1  -1
    X31  R425  0.3240740299224853515625
    X31  R426  -0.3097149431705474853515625
    X32  COST  0
    X32  R2  -1
    X32  R131  -1
    X32  R132  -1
    X33  COST  0
    X33  R3  -1
    X33  R134  -1
    X33  R135  -1
    X34  COST  0
    X34  R4  -1
    X35  COST  0
    X35  R5  -1
    X35  R137  -1
    X35  R138  -1
    X36  COST  0
    X36  R6  -1
    X36  R140  -1
    X36  R141  -1
    X37  COST  0
    X37  R7  -1
    X37  R143  -1
    X37  R144  -1
    X38  COST  0
    X38  R8  -1
    X39  COST  0
    X39  R9  -1
    X39  R425  -0.009648852050304412841796875
    X39  R426  -0.3391948640346527099609375
    X40  COST  0
    X40  R10  -1
    X40  R146  -1
    X40  R147  -1
    X41  COST  0
    X41  R11  -1
    X41  R149  -1
    X41  R150  -1
    X42  COST  0
    X42  R12  -1
    X42  R152  -1
    X42  R153  -1
    X43  COST  0
    X43  R13  -1
    X43  R155  -1
    X43  R156  -1
    X44  COST  0
    X44  R14  -1
    X44  R158  -1
    X44  R159  -1
    X45  COST  0
    X45  R15  -1
    X45  R161  -1
    X45  R162  -1
    X46  COST  0
    X46  R16  -1
    X46  R164  -1
    X46  R165  -1
    X47  COST  0
    X47  R17  -1
    X47  R167  -1
    X47  R168  -1
    X48  COST  0
    X48  R18  -1
    X48  R170  -1
    X48  R171  -1
    X49  COST  0
    X49  R19  -1
    X49  R173  -1
    X49  R174  -1
    X50  COST  0
    X50  R20  -1
    X51  COST  0
    X51  R21  -1
    X51  R425  0.3968683779239654541015625
    X51  R426  -0.0594748668372631072998046875
    X52  COST  0
    X52  R22  -1
    X52  R176  -1
    X52  R177  -1
    X53  COST  0
    X53  R23  -1
    X53  R179  -1
    X53  R180  -1
    X54  COST  0
    X54  R24  -1
    X54  R182  -1
    X54  R183  -1
    X55  COST  0
    X55  R25  -1
    X55  R185  -1
    X55  R186  -1
    X56  COST  0
    X56  R26  -1
    X56  R188  -1
    X56  R189  -1
    X57  COST  0
    X57  R27  -1
    X57  R191  -1
    X57  R192  -1
    X58  COST  0
    X58  R28  -1
    X59  COST  0
    X59  R29  -1
    X59  R194  -1
    X59  R195  -1
    X60  COST  0
    X60  R30  -1
    X60  R197  -1
    X60  R198  -1
    X61  COST  0
    X61  R31  -1
    X62  COST  0
    X62  R32  -1
    X62  R200  -1
    X62  R201  -1
    X63  COST  0
    X63  R33  -1
    X63  R203  -1
    X63  R204  -1
    X64  COST  0
    X64  R34  -1
    X65  COST  0
    X65  R35  -1
    X65  R206  -1
    X65  R207  -1
    X66  COST  0
    X66  R36  -1
    X66  R209  -1
    X66  R210  -1
    X67  COST  0
    X67  R37  -1
    X67  R212  -1
    X67  R213  -1
    X68  COST  0
    X68  R38  -1
    X68  R215  -1
    X68  R216  -1
    X69  COST  0
    X69  R39  -1
    X69  R218  -1
    X69  R219  -1
    X70  COST  0
    X70  R40  -1
    X70  R221  -1
    X70  R222  -1
    X71  COST  0
    X71  R41  -1
    X71  R224  -1
    X71  R225  -1
    X72  COST  0
    X72  R42  -1
    X73  COST  0
    X73  R43  -1
    X73  R227  -1
    X73  R228  -1
    X74  COST  0
    X74  R44  -1
    X75  COST  0
    X75  R45  -1
    X75  R230  -1
    X75  R231  -1
    X76  COST  0
    X76  R46  -1
    X76  R233  -1
    X76  R234  -1
    X77  COST  0
    X77  R47  -1
    X78  COST  0
    X78  R48  -1
    X78  R236  -1
    X78  R237  -1
    X79  COST  0
    X79  R49  -1
    X79  R239  -1
    X79  R240  -1
    X80  COST  0
    X80  R50  -1
    X80  R242  -1
    X80  R243  -1
    X81  COST  0
    X81  R51  -1
    X81  R245  -1
    X81  R246  -1
    X82  COST  0
    X82  R52  -1
    X82  R248  -1
    X82  R249  -1
    X83  COST  0
    X83  R53  -1
    X83  R251  -1
    X83  R252  -1
    X84  COST  0
    X84  R54  -1
    X84  R254  -1
    X84  R255  -1
    X85  COST  0
    X85  R55  -1
    X85  R257  -1
    X85  R258  -1
    X86  COST  0
    X86  R56  -1
    X87  COST  0
    X87  R57  -1
    X87  R425  0.2957343757152557373046875
    X87  R426  -0.119345121085643768310546875
    X88  COST  0
    X88  R58  -1
    X88  R260  -1
    X88  R261  -1
    X89  COST  0
    X89  R59  -1
    X90  COST  0
    X90  R60  -1
    X90  R263  -1
    X90  R264  -1
    X91  COST  0
    X91  R61  -1
    X91  R425  0.2939645946025848388671875
    X91  R426  -0.4683098495006561279296875
    X92  COST  0
    X92  R62  -1
    X92  R266  -1
    X92  R267  -1
    X93  COST  0
    X93  R63  -1
    X93  R425  0.3659239709377288818359375
    X93  R426  0.0363025255501270294189453125
    X94  COST  0
    X94  R64  -1
    X94  R269  -1
    X94  R270  -1
    X95  COST  0
    X95  R65  -1
    X96  COST  0
    X96  R66  -1
    X97  COST  0
    X97  R67  -1
    X97  R272  -1
    X97  R273  -1
    X98  COST  0
    X98  R68  -1
    X98  R275  -1
    X98  R276  -1
    X99  COST  0
    X99  R69  -1
    X99  R278  -1
    X99  R279  -1
    X100  COST  0
    X100  R70  -1
    X100  R281  -1
    X100  R282  -1
    X101  COST  0
    X101  R71  -1
    X101  R284  -1
    X101  R285  -1
    X102  COST  0
    X102  R72  -1
    X102  R287  -1
    X102  R288  -1
    X103  COST  0
    X103  R73  -1
    X103  R290  -1
    X103  R291  -1
    X104  COST  0
    X104  R74  -1
    X104  R293  -1
    X104  R294  -1
    X105  COST  0
    X105  R75  -1
    X105  R296  -1
    X105  R297  -1
    X106  COST  0
    X106  R76  -1
    X106  R425  0.13726520538330078125
    X106  R426  -0.286307990550994873046875
    X107  COST  0
    X107  R77  -1
    X107  R299  -1
    X107  R300  -1
    X108  COST  0
    X108  R78  -1
    X108  R425  0.3938952982425689697265625
    X108  R426  -0.285937607288360595703125
    X109  COST  0
    X109  R79  -1
    X109  R302  -1
    X109  R303  -1
    X110  COST  0
    X110  R80  -1
    X110  R305  -1
    X110  R306  -1
    X111  COST  0
    X111  R81  -1
    X111  R308  -1
    X111  R309  -1
    X112  COST  0
    X112  R82  -1
    X112  R311  -1
    X112  R312  -1
    X113  COST  0
    X113  R83  -1
    X113  R314  -1
    X113  R315  -1
    X114  COST  0
    X114  R84  -1
    X114  R317  -1
    X114  R318  -1
    X115  COST  0
    X115  R85  -1
    X115  R320  -1
    X115  R321  -1
    X116  COST  0
    X116  R86  -1
    X116  R323  -1
    X116  R324  -1
    X117  COST  0
    X117  R87  -1
    X117  R326  -1
    X117  R327  -1
    X118  COST  0
    X118  R88  -1
    X118  R329  -1
    X118  R330  -1
    X119  COST  0
    X119  R89  -1
    X119  R332  -1
    X119  R333  -1
    X120  COST  0
    X120  R90  -1
    X120  R335  -1
    X120  R336  -1
    X121  COST  0
    X121  R91  -1
    X121  R338  -1
    X121  R339  -1
    X122  COST  0
    X122  R92  -1
    X122  R341  -1
    X122  R342  -1
    X123  COST  0
    X123  R93  -1
    X123  R344  -1
    X123  R345  -1
    X124  COST  0
    X124  R94  -1
    X125  COST  0
    X125  R95  -1
    X125  R347  -1
    X125  R348  -1
    X126  COST  0
    X126  R96  -1
    X126  R350  -1
    X126  R351  -1
    X127  COST  0
    X127  R97  -1
    X128  COST  0
    X128  R98  -1
    X128  R353  -1
    X128  R354  -1
    X129  COST  0
    X129  R99  -1
    X129  R425  0.3493111431598663330078125
    X129  R426  -0.3393423855304718017578125
    X130  COST  0
    X130  R100  -1
    X130  R356  -1
    X130  R357  -1
    X131  COST  0
    X131  R101  -1
    X131  R359  -1
    X131  R360  -1
    X132  COST  0
    X132  R102  -1
    X132  R362  -1
    X132  R363  -1
    X133  COST  0
    X133  R103  -1
    X133  R365  -1
    X133  R366  -1
    X134  COST  0
    X134  R104  -1
    X134  R425  -0.0335623733699321746826171875
    X134  R426  -0.346338570117950439453125
    X135  COST  0
    X135  R105  -1
    X135  R368  -1
    X135  R369  -1
    X136  COST  0
    X136  R106  -1
    X136  R371  -1
    X136  R372  -1
    X137  COST  0
    X137  R107  -1
    X137  R374  -1
    X137  R375  -1
    X138  COST  0
    X138  R108  -1
    X138  R377  -1
    X138  R378  -1
    X139  COST  0
    X139  R109  -1
    X139  R380  -1
    X139  R381  -1
    X140  COST  0
    X140  R110  -1
    X140  R383  -1
    X140  R384  -1
    X141  COST  0
    X141  R111  -1
    X141  R386  -1
    X141  R387  -1
    X142  COST  0
    X142  R112  -1
    X142  R389  -1
    X142  R390  -1
    X143  COST  0
    X143  R113  -1
    X143  R392  -1
    X143  R393  -1
    X144  COST  0
    X144  R114  -1
    X144  R395  -1
    X144  R396  -1
    X145  COST  0
    X145  R115  -1
    X145  R398  -1
    X145  R399  -1
    X146  COST  0
    X146  R116  -1
    X147  COST  0
    X147  R117  -1
    X147  R401  -1
    X147  R402  -1
    X148  COST  0
    X148  R118  -1
    X148  R404  -1
    X148  R405  -1
    X149  COST  0
    X149  R119  -1
    X150  COST  0
    X150  R120  -1
    X150  R407  -1
    X150  R408  -1
    X151  COST  0
    X151  R121  -1
    X152  COST  0
    X152  R122  -1
    X152  R410  -1
    X152  R411  -1
    X153  COST  0
    X153  R123  -1
    X154  COST  0
    X154  R124  -1
    X154  R413  -1
    X154  R414  -1
    X155  COST  0
    X155  R125  -1
    X155  R416  -1
    X155  R417  -1
    X156  COST  0
    X156  R126  -1
    X156  R419  -1
    X156  R420  -1
    X157  COST  0
    X157  R127  -1
    X157  R422  -1
    X157  R423  -1
    X158  COST  0
    X158  R128  1
    X158  R129  1
    X158  R130  1
    X158  R425  -0.4889698922634124755859375
    X158  R426  0.700106084346771240234375
    MARKER0000  'MARKER'  'INTORG'
    X159  COST  0
    X159  R129  0.731597244739532470703125
    X159  R130  -0.04023253917694091796875
    MARKER0000  'MARKER'  'INTEND'
    X160  COST  0
    X160  R131  1
    X160  R132  1
    X160  R133  1
    X160  R425  -0.56075155735015869140625
    X160  R426  0.3958002030849456787109375
    MARKER0001  'MARKER'  'INTORG'
    X161  COST  0
    X161  R132  0.8604099750518798828125
    X161  R133  -0.05632124841213226318359375
    MARKER0001  'MARKER'  'INTEND'
    X162  COST  0
    X162  R134  1
    X162  R135  1
    X162  R136  1
    X162  R425  0.4408631026744842529296875
    X162  R426  -0.3178560435771942138671875
    MARKER0002  'MARKER'  'INTORG'
    X163  COST  0
    X163  R135  0.05314075946807861328125
    X163  R136  -0.68002521991729736328125
    MARKER0002  'MARKER'  'INTEND'
    X164  COST  0
    X164  R425  -0.810147821903228759765625
    X164  R426  0.97646653652191162109375
    X165  COST  0
    X165  R137  1
    X165  R138  1
    X165  R139  1
    X165  R425  0.788828372955322265625
    X165  R426  -0.6021301746368408203125
    MARKER0003  'MARKER'  'INTORG'
    X166  COST  0
    X166  R138  0.738815009593963623046875
    X166  R139  -0.09199868142604827880859375
    MARKER0003  'MARKER'  'INTEND'
    X167  COST  0
    X167  R140  1
    X167  R141  1
    X167  R142  1
    X167  R425  0.2610330283641815185546875
    X167  R426  -0.073972962796688079833984375
    MARKER0004  'MARKER'  'INTORG'
    X168  COST  0
    X168  R141  0.579002439975738525390625
    X168  R142  -0.0689256191253662109375
    MARKER0004  'MARKER'  'INTEND'
    X169  COST  0
    X169  R143  1
    X169  R144  1
    X169  R145  1
    X169  R425  -0.4707443714141845703125
    X169  R426  0.692132771015167236328125
    MARKER0005  'MARKER'  'INTORG'
    X170  COST  0
    X170  R144  0.647376120090484619140625
    X170  R145  -0.361340999603271484375
    MARKER0005  'MARKER'  'INTEND'
    X171  COST  0
    X171  R425  -0.3615286648273468017578125
    X171  R426  0.603016555309295654296875
    X172  COST  0
    X172  R146  1
    X172  R147  1
    X172  R148  1
    X172  R425  -0.652098834514617919921875
    X172  R426  0.78125154972076416015625
    MARKER0006  'MARKER'  'INTORG'
    X173  COST  0
    X173  R147  0.63419568538665771484375
    X173  R148  -0.251130402088165283203125
    MARKER0006  'MARKER'  'INTEND'
    X174  COST  0
    X174  R149  1
    X174  R150  1
    X174  R151  1
    X174  R425  -0.500926315784454345703125
    X174  R426  0.46217572689056396484375
    MARKER0007  'MARKER'  'INTORG'
    X175  COST  0
    X175  R150  0.3915937244892120361328125
    X175  R151  -0.3543269634246826171875
    MARKER0007  'MARKER'  'INTEND'
    X176  COST  0
    X176  R152  1
    X176  R153  1
    X176  R154  1
    X176  R425  0.50446760654449462890625
    X176  R426  -0.3875582516193389892578125
    MARKER0008  'MARKER'  'INTORG'
    X177  COST  0
    X177  R153  0.23674999177455902099609375
    X177  R154  -0.3708010613918304443359375
    MARKER0008  'MARKER'  'INTEND'
    X178  COST  0
    X178  R155  1
    X178  R156  1
    X178  R157  1
    X178  R425  0.201827228069305419921875
    X178  R426  -0.32003009319305419921875
    MARKER0009  'MARKER'  'INTORG'
    X179  COST  0
    X179  R156  0.2592715919017791748046875
    X179  R157  -0.378276824951171875
    MARKER0009  'MARKER'  'INTEND'
    X180  COST  0
    X180  R158  1
    X180  R159  1
    X180  R160  1
    X180  R425  0.1427414119243621826171875
    X180  R426  -0.255396068096160888671875
    MARKER0010  'MARKER'  'INTORG'
    X181  COST  0
    X181  R159  0.16468052566051483154296875
    X181  R160  -0.4485175907611846923828125
    MARKER0010  'MARKER'  'INTEND'
    X182  COST  0
    X182  R161  1
    X182  R162  1
    X182  R163  1
    X182  R425  -0.737078249454498291015625
    X182  R426  0.598409354686737060546875
    MARKER0011  'MARKER'  'INTORG'
    X183  COST  0
    X183  R162  0.59351623058319091796875
    X183  R163  -0.3575060367584228515625
    MARKER0011  'MARKER'  'INTEND'
    X184  COST  0
    X184  R164  1
    X184  R165  1
    X184  R166  1
    X184  R425  -0.814577579498291015625
    X184  R426  0.692378520965576171875
    MARKER0012  'MARKER'  'INTORG'
    X185  COST  0
    X185  R165  0.64735305309295654296875
    X185  R166  -0.17776907980442047119140625
    MARKER0012  'MARKER'  'INTEND'
    X186  COST  0
    X186  R167  1
    X186  R168  1
    X186  R169  1
    X186  R425  0.17532448470592498779296875
    X186  R426  -0.1709269583225250244140625
    MARKER0013  'MARKER'  'INTORG'
    X187  COST  0
    X187  R168  0.15179328620433807373046875
    X187  R169  -0.3911454677581787109375
    MARKER0013  'MARKER'  'INTEND'
    X188  COST  0
    X188  R170  1
    X188  R171  1
    X188  R172  1
    X188  R425  0.829023063182830810546875
    X188  R426  -0.997345447540283203125
    MARKER0014  'MARKER'  'INTORG'
    X189  COST  0
    X189  R171  0.760204315185546875
    X189  R172  -0.12894941866397857666015625
    MARKER0014  'MARKER'  'INTEND'
    X190  COST  0
    X190  R173  1
    X190  R174  1
    X190  R175  1
    X190  R425  0.2314395904541015625
    X190  R426  -0.3539507091045379638671875
    MARKER0015  'MARKER'  'INTORG'
    X191  COST  0
    X191  R174  0.0710892975330352783203125
    X191  R175  -0.577648460865020751953125
    MARKER0015  'MARKER'  'INTEND'
    X192  COST  0
    X192  R425  -0.56134116649627685546875
    X192  R426  0.4332450926303863525390625
    X193  COST  0
    X193  R176  1
    X193  R177  1
    X193  R178  1
    X193  R425  -0.431986331939697265625
    X193  R426  0.57674038410186767578125
    MARKER0016  'MARKER'  'INTORG'
    X194  COST  0
    X194  R177  0.504109323024749755859375
    X194  R178  -0.1622054874897003173828125
    MARKER0016  'MARKER'  'INTEND'
    X195  COST  0
    X195  R179  1
    X195  R180  1
    X195  R181  1
    X195  R425  0.0449662320315837860107421875
    X195  R426  -0.3256120979785919189453125
    MARKER0017  'MARKER'  'INTORG'
    X196  COST  0
    X196  R180  0.082513608038425445556640625
    X196  R181  -0.643140316009521484375
    MARKER0017  'MARKER'  'INTEND'
    X197  COST  0
    X197  R182  1
    X197  R183  1
    X197  R184  1
    X197  R425  -0.71800816059112548828125
    X197  R426  0.512109100818634033203125
    MARKER0018  'MARKER'  'INTORG'
    X198  COST  0
    X198  R183  0.78666865825653076171875
    X198  R184  -0.126776754856109619140625
    MARKER0018  'MARKER'  'INTEND'
    X199  COST  0
    X199  R185  1
    X199  R186  1
    X199  R187  1
    X199  R425  -0.83406269550323486328125
    X199  R426  0.811814963817596435546875
    MARKER0019  'MARKER'  'INTORG'
    X200  COST  0
    X200  R186  0.36285793781280517578125
    X200  R187  -0.3903361856937408447265625
    MARKER0019  'MARKER'  'INTEND'
    X201  COST  0
    X201  R188  1
    X201  R189  1
    X201  R190  1
    X201  R425  0.2274394929409027099609375
    X201  R426  -0.356357753276824951171875
    MARKER0020  'MARKER'  'INTORG'
    X202  COST  0
    X202  R189  0.2383586466312408447265625
    X202  R190  -0.4533622264862060546875
    MARKER0020  'MARKER'  'INTEND'
    X203  COST  0
    X203  R191  1
    X203  R192  1
    X203  R193  1
    X203  R425  -0.31421387195587158203125
    X203  R426  0.404774844646453857421875
    MARKER0021  'MARKER'  'INTORG'
    X204  COST  0
    X204  R192  0.802013218402862548828125
    X204  R193  -0.002580739557743072509765625
    MARKER0021  'MARKER'  'INTEND'
    X205  COST  0
    X205  R425  -0.631995260715484619140625
    X205  R426  0.643757522106170654296875
    X206  COST  0
    X206  R194  1
    X206  R195  1
    X206  R196  1
    X206  R425  -0.3495901525020599365234375
    X206  R426  0.515329062938690185546875
    MARKER0022  'MARKER'  'INTORG'
    X207  COST  0
    X207  R195  0.388770878314971923828125
    X207  R196  -0.3619355261325836181640625
    MARKER0022  'MARKER'  'INTEND'
    X208  COST  0
    X208  R197  1
    X208  R198  1
    X208  R199  1
    X208  R425  0.287460803985595703125
    X208  R426  -0.3652091324329376220703125
    MARKER0023  'MARKER'  'INTORG'
    X209  COST  0
    X209  R198  0.043253771960735321044921875
    X209  R199  -0.613730609416961669921875
    MARKER0023  'MARKER'  'INTEND'
    X210  COST  0
    X210  R425  -0.660336911678314208984375
    X210  R426  0.565629065036773681640625
    X211  COST  0
    X211  R200  1
    X211  R201  1
    X211  R202  1
    X211  R425  0.618401825428009033203125
    X211  R426  -0.25741016864776611328125
    MARKER0024  'MARKER'  'INTORG'
    X212  COST  0
    X212  R201  0.24397771060466766357421875
    X212  R202  -0.638556182384490966796875
    MARKER0024  'MARKER'  'INTEND'
    X213  COST  0
    X213  R203  1
    X213  R204  1
    X213  R205  1
    X213  R425  0.18217788636684417724609375
    X213  R426  -0.13164578378200531005859375
    MARKER0025  'MARKER'  'INTORG'
    X214  COST  0
    X214  R204  0.0205628834664821624755859375
    X214  R205  -0.536478340625762939453125
    MARKER0025  'MARKER'  'INTEND'
    X215  COST  0
    X215  R425  -0.521166622638702392578125
    X215  R426  0.60616672039031982421875
    X216  COST  0
    X216  R206  1
    X216  R207  1
    X216  R208  1
    X216  R425  -0.6365835666656494140625
    X216  R426  0.7099635601043701171875
    MARKER0026  'MARKER'  'INTORG'
    X217  COST  0
    X217  R207  0.78859436511993408203125
    X217  R208  -0.0341531336307525634765625
    MARKER0026  'MARKER'  'INTEND'
    X218  COST  0
    X218  R209  1
    X218  R210  1
    X218  R211  1
    X218  R425  -0.557404816150665283203125
    X218  R426  0.6883094310760498046875
    MARKER0027  'MARKER'  'INTORG'
    X219  COST  0
    X219  R210  0.91599524021148681640625
    X219  R211  -0.02495895326137542724609375
    MARKER0027  'MARKER'  'INTEND'
    X220  COST  0
    X220  R212  1
    X220  R213  1
    X220  R214  1
    X220  R425  0.391494572162628173828125
    X220  R426  -0.064206264913082122802734375
    MARKER0028  'MARKER'  'INTORG'
    X221  COST  0
    X221  R213  0.058357559144496917724609375
    X221  R214  -0.698637783527374267578125
    MARKER0028  'MARKER'  'INTEND'
    X222  COST  0
    X222  R215  1
    X222  R216  1
    X222  R217  1
    X222  R425  0.576244056224822998046875
    X222  R426  -0.3968982398509979248046875
    MARKER0029  'MARKER'  'INTORG'
    X223  COST  0
    X223  R216  0.47144603729248046875
    X223  R217  -0.13689906895160675048828125
    MARKER0029  'MARKER'  'INTEND'
    X224  COST  0
    X224  R218  1
    X224  R219  1
    X224  R220  1
    X224  R425  0.379083216190338134765625
    X224  R426  -0.363702476024627685546875
    MARKER0030  'MARKER'  'INTORG'
    X225  COST  0
    X225  R219  0.349228799343109130859375
    X225  R220  -0.301095426082611083984375
    MARKER0030  'MARKER'  'INTEND'
    X226  COST  0
    X226  R221  1
    X226  R222  1
    X226  R223  1
    X226  R425  -0.74554312229156494140625
    X226  R426  0.690418660640716552734375
    MARKER0031  'MARKER'  'INTORG'
    X227  COST  0
    X227  R222  0.4796477854251861572265625
    X227  R223  -0.22609989345073699951171875
    MARKER0031  'MARKER'  'INTEND'
    X228  COST  0
    X228  R224  1
    X228  R225  1
    X228  R226  1
    X228  R425  0.4285857677459716796875
    X228  R426  -0.398911416530609130859375
    MARKER0032  'MARKER'  'INTORG'
    X229  COST  0
    X229  R225  0.1657959520816802978515625
    X229  R226  -0.46927535533905029296875
    MARKER0032  'MARKER'  'INTEND'
    X230  COST  0
    X230  R425  -0.4037172496318817138671875
    X230  R426  0.2908929288387298583984375
    X231  COST  0
    X231  R227  1
    X231  R228  1
    X231  R229  1
    X231  R425  -0.4767912924289703369140625
    X231  R426  0.250522613525390625
    MARKER0033  'MARKER'  'INTORG'
    X232  COST  0
    X232  R228  0.4545753896236419677734375
    X232  R229  -0.315341174602508544921875
    MARKER0033  'MARKER'  'INTEND'
    X233  COST  0
    X233  R425  -0.64803028106689453125
    X233  R426  0.4829109013080596923828125
    X234  COST  0
    X234  R230  1
    X234  R231  1
    X234  R232  1
    X234  R425  0.308999836444854736328125
    X234  R426  -0.309320926666259765625
    MARKER0034  'MARKER'  'INTORG'
    X235  COST  0
    X235  R231  0.2587183415889739990234375
    X235  R232  -0.4533536732196807861328125
    MARKER0034  'MARKER'  'INTEND'
    X236  COST  0
    X236  R233  1
    X236  R234  1
    X236  R235  1
    X236  R425  0.4987787306308746337890625
    X236  R426  -0.17340944707393646240234375
    MARKER0035  'MARKER'  'INTORG'
    X237  COST  0
    X237  R234  0.2761267125606536865234375
    X237  R235  -0.439081251621246337890625
    MARKER0035  'MARKER'  'INTEND'
    X238  COST  0
    X238  R425  -0.512669980525970458984375
    X238  R426  0.692968428134918212890625
    X239  COST  0
    X239  R236  1
    X239  R237  1
    X239  R238  1
    X239  R425  0.0593774504959583282470703125
    X239  R426  -0.30753409862518310546875
    MARKER0036  'MARKER'  'INTORG'
    X240  COST  0
    X240  R237  0.0446261204779148101806640625
    X240  R238  -0.502169072628021240234375
    MARKER0036  'MARKER'  'INTEND'
    X241  COST  0
    X241  R239  1
    X241  R240  1
    X241  R241  1
    X241  R425  0.16838158667087554931640625
    X241  R426  -0.449715197086334228515625
    MARKER0037  'MARKER'  'INTORG'
    X242  COST  0
    X242  R240  0.2711031436920166015625
    X242  R241  -0.472147405147552490234375
    MARKER0037  'MARKER'  'INTEND'
    X243  COST  0
    X243  R242  1
    X243  R243  1
    X243  R244  1
    X243  R425  0.2779888808727264404296875
    X243  R426  -0.6097266674041748046875
    MARKER0038  'MARKER'  'INTORG'
    X244  COST  0
    X244  R243  0.2761895954608917236328125
    X244  R244  -0.625456869602203369140625
    MARKER0038  'MARKER'  'INTEND'
    X245  COST  0
    X245  R245  1
    X245  R246  1
    X245  R247  1
    X245  R425  0.214861571788787841796875
    X245  R426  -0.329807937145233154296875
    MARKER0039  'MARKER'  'INTORG'
    X246  COST  0
    X246  R246  0.27448093891143798828125
    X246  R247  -0.2811825275421142578125
    MARKER0039  'MARKER'  'INTEND'
    X247  COST  0
    X247  R248  1
    X247  R249  1
    X247  R250  1
    X247  R425  0.2617579996585845947265625
    X247  R426  -0.341743767261505126953125
    MARKER0040  'MARKER'  'INTORG'
    X248  COST  0
    X248  R249  0.106980271637439727783203125
    X248  R250  -0.470219433307647705078125
    MARKER0040  'MARKER'  'INTEND'
    X249  COST  0
    X249  R251  1
    X249  R252  1
    X249  R253  1
    X249  R425  -0.689835727214813232421875
    X249  R426  0.91290533542633056640625
    MARKER0041  'MARKER'  'INTORG'
    X250  COST  0
    X250  R252  1.04834854602813720703125
    X250  R253  -0.0032714307308197021484375
    MARKER0041  'MARKER'  'INTEND'
    X251  COST  0
    X251  R254  1
    X251  R255  1
    X251  R256  1
    X251  R425  -0.729760468006134033203125
    X251  R426  0.953685104846954345703125
    MARKER0042  'MARKER'  'INTORG'
    X252  COST  0
    X252  R255  0.503982245922088623046875
    X252  R256  -0.519449532032012939453125
    MARKER0042  'MARKER'  'INTEND'
    X253  COST  0
    X253  R257  1
    X253  R258  1
    X253  R259  1
    X253  R425  -0.6404163837432861328125
    X253  R426  0.83012187480926513671875
    MARKER0043  'MARKER'  'INTORG'
    X254  COST  0
    X254  R258  0.62286221981048583984375
    X254  R259  -0.2867166996002197265625
    MARKER0043  'MARKER'  'INTEND'
    X255  COST  0
    X255  R425  0.2999658882617950439453125
    X255  R426  -0.4486307799816131591796875
    X256  COST  0
    X256  R260  1
    X256  R261  1
    X256  R262  1
    X256  R425  0.22974193096160888671875
    X256  R426  -0.08169741928577423095703125
    MARKER0044  'MARKER'  'INTORG'
    X257  COST  0
    X257  R261  0.3699274957180023193359375
    X257  R262  -0.23364602029323577880859375
    MARKER0044  'MARKER'  'INTEND'
    X258  COST  0
    X258  R425  -0.643900573253631591796875
    X258  R426  0.74160420894622802734375
    X259  COST  0
    X259  R263  1
    X259  R264  1
    X259  R265  1
    X259  R425  0.3334516584873199462890625
    X259  R426  -0.102985583245754241943359375
    MARKER0045  'MARKER'  'INTORG'
    X260  COST  0
    X260  R264  0.0389323942363262176513671875
    X260  R265  -0.5585677623748779296875
    MARKER0045  'MARKER'  'INTEND'
    X261  COST  0
    X261  R266  1
    X261  R267  1
    X261  R268  1
    X261  R425  -0.4671460688114166259765625
    X261  R426  0.19941015541553497314453125
    MARKER0046  'MARKER'  'INTORG'
    X262  COST  0
    X262  R267  0.472499907016754150390625
    X262  R268  -0.3397902548313140869140625
    MARKER0046  'MARKER'  'INTEND'
    X263  COST  0
    X263  R269  1
    X263  R270  1
    X263  R271  1
    X263  R425  -0.432452380657196044921875
    X263  R426  0.538445293903350830078125
    MARKER0047  'MARKER'  'INTORG'
    X264  COST  0
    X264  R270  0.60943543910980224609375
    X264  R271  -0.06138463318347930908203125
    MARKER0047  'MARKER'  'INTEND'
    X265  COST  0
    X265  R425  -0.61398041248321533203125
    X265  R426  0.464840412139892578125
    X266  COST  0
    X266  R425  -0.7241995334625244140625
    X266  R426  0.68761479854583740234375
    X267  COST  0
    X267  R272  1
    X267  R273  1
    X267  R274  1
    X267  R425  0.624656856060028076171875
    X267  R426  -0.331239163875579833984375
    MARKER0048  'MARKER'  'INTORG'
    X268  COST  0
    X268  R273  0.2936851978302001953125
    X268  R274  -0.337206542491912841796875
    MARKER0048  'MARKER'  'INTEND'
    X269  COST  0
    X269  R275  1
    X269  R276  1
    X269  R277  1
    X269  R425  -0.496604740619659423828125
    X269  R426  0.629393517971038818359375
    MARKER0049  'MARKER'  'INTORG'
    X270  COST  0
    X270  R276  0.54695332050323486328125
    X270  R277  -0.2857628762722015380859375
    MARKER0049  'MARKER'  'INTEND'
    X271  COST  0
    X271  R278  1
    X271  R279  1
    X271  R280  1
    X271  R425  0.41352951526641845703125
    X271  R426  -0.42252349853515625
    MARKER0050  'MARKER'  'INTORG'
    X272  COST  0
    X272  R279  0.4350070059299468994140625
    X272  R280  -0.20095728337764739990234375
    MARKER0050  'MARKER'  'INTEND'
    X273  COST  0
    X273  R281  1
    X273  R282  1
    X273  R283  1
    X273  R425  0.380694568157196044921875
    X273  R426  -0.16623128950595855712890625
    MARKER0051  'MARKER'  'INTORG'
    X274  COST  0
    X274  R282  0.2227900326251983642578125
    X274  R283  -0.4028390944004058837890625
    MARKER0051  'MARKER'  'INTEND'
    X275  COST  0
    X275  R284  1
    X275  R285  1
    X275  R286  1
    X275  R425  0.38869488239288330078125
    X275  R426  -0.1412703990936279296875
    MARKER0052  'MARKER'  'INTORG'
    X276  COST  0
    X276  R285  0.310038387775421142578125
    X276  R286  -0.4422396123409271240234375
    MARKER0052  'MARKER'  'INTEND'
    X277  COST  0
    X277  R287  1
    X277  R288  1
    X277  R289  1
    X277  R425  0.3086716234683990478515625
    X277  R426  -0.576662957668304443359375
    MARKER0053  'MARKER'  'INTORG'
    X278  COST  0
    X278  R288  0.0535987913608551025390625
    X278  R289  -0.75672709941864013671875
    MARKER0053  'MARKER'  'INTEND'
    X279  COST  0
    X279  R290  1
    X279  R291  1
    X279  R292  1
    X279  R425  0.18006043136119842529296875
    X279  R426  -0.40480530261993408203125
    MARKER0054  'MARKER'  'INTORG'
    X280  COST  0
    X280  R291  0.0004505626857280731201171875
    X280  R292  -0.69137299060821533203125
    MARKER0054  'MARKER'  'INTEND'
    X281  COST  0
    X281  R293  1
    X281  R294  1
    X281  R295  1
    X281  R425  -0.4763212502002716064453125
    X281  R426  0.3571959435939788818359375
    MARKER0055  'MARKER'  'INTORG'
    X282  COST  0
    X282  R294  0.3357230126857757568359375
    X282  R295  -0.39740288257598876953125
    MARKER0055  'MARKER'  'INTEND'
    X283  COST  0
    X283  R296  1
    X283  R297  1
    X283  R298  1
    X283  R425  0.72083866596221923828125
    X283  R426  -0.724209487438201904296875
    MARKER0056  'MARKER'  'INTORG'
    X284  COST  0
    X284  R297  0.53754317760467529296875
    X284  R298  -0.297787189483642578125
    MARKER0056  'MARKER'  'INTEND'
    X285  COST  0
    X285  R299  1
    X285  R300  1
    X285  R301  1
    X285  R425  0.425986707210540771484375
    X285  R426  -0.2627594470977783203125
    MARKER0057  'MARKER'  'INTORG'
    X286  COST  0
    X286  R300  0.118598021566867828369140625
    X286  R301  -0.69306147098541259765625
    MARKER0057  'MARKER'  'INTEND'
    X287  COST  0
    X287  R302  1
    X287  R303  1
    X287  R304  1
    X287  R425  -0.974172115325927734375
    X287  R426  0.764629840850830078125
    MARKER0058  'MARKER'  'INTORG'
    X288  COST  0
    X288  R303  0.3320908844470977783203125
    X288  R304  -0.49455368518829345703125
    MARKER0058  'MARKER'  'INTEND'
    X289  COST  0
    X289  R305  1
    X289  R306  1
    X289  R307  1
    X289  R425  0.4560862481594085693359375
    X289  R426  -0.21837241947650909423828125
    MARKER0059  'MARKER'  'INTORG'
    X290  COST  0
    X290  R306  0.670063793659210205078125
    X290  R307  -0.0600763857364654541015625
    MARKER0059  'MARKER'  'INTEND'
    X291  COST  0
    X291  R308  1
    X291  R309  1
    X291  R310  1
    X291  R425  0.42257463932037353515625
    X291  R426  -0.17844758927822113037109375
    MARKER0060  'MARKER'  'INTORG'
    X292  COST  0
    X292  R309  0.2622093260288238525390625
    X292  R310  -0.4922737777233123779296875
    MARKER0060  'MARKER'  'INTEND'
    X293  COST  0
    X293  R311  1
    X293  R312  1
    X293  R313  1
    X293  R425  0.24000453948974609375
    X293  R426  -0.1219426095485687255859375
    MARKER0061  'MARKER'  'INTORG'
    X294  COST  0
    X294  R312  0.28871452808380126953125
    X294  R313  -0.2482424676418304443359375
    MARKER0061  'MARKER'  'INTEND'
    X295  COST  0
    X295  R314  1
    X295  R315  1
    X295  R316  1
    X295  R425  -0.324428260326385498046875
    X295  R426  0.473285257816314697265625
    MARKER0062  'MARKER'  'INTORG'
    X296  COST  0
    X296  R315  0.773484170436859130859375
    X296  R316  -0.064478583633899688720703125
    MARKER0062  'MARKER'  'INTEND'
    X297  COST  0
    X297  R317  1
    X297  R318  1
    X297  R319  1
    X297  R425  -0.50670945644378662109375
    X297  R426  0.2994214594364166259765625
    MARKER0063  'MARKER'  'INTORG'
    X298  COST  0
    X298  R318  0.6119329929351806640625
    X298  R319  -0.15900994837284088134765625
    MARKER0063  'MARKER'  'INTEND'
    X299  COST  0
    X299  R320  1
    X299  R321  1
    X299  R322  1
    X299  R425  0.302102625370025634765625
    X299  R426  -0.33594238758087158203125
    MARKER0064  'MARKER'  'INTORG'
    X300  COST  0
    X300  R321  0.069752395153045654296875
    X300  R322  -0.657513797283172607421875
    MARKER0064  'MARKER'  'INTEND'
    X301  COST  0
    X301  R323  1
    X301  R324  1
    X301  R325  1
    X301  R425  0.933397471904754638671875
    X301  R426  -0.854458034038543701171875
    MARKER0065  'MARKER'  'INTORG'
    X302  COST  0
    X302  R324  0.592053830623626708984375
    X302  R325  -0.2739898860454559326171875
    MARKER0065  'MARKER'  'INTEND'
    X303  COST  0
    X303  R326  1
    X303  R327  1
    X303  R328  1
    X303  R425  0.3652952015399932861328125
    X303  R426  -0.342895090579986572265625
    MARKER0066  'MARKER'  'INTORG'
    X304  COST  0
    X304  R327  0.4301665723323822021484375
    X304  R328  -0.3556825816631317138671875
    MARKER0066  'MARKER'  'INTEND'
    X305  COST  0
    X305  R329  1
    X305  R330  1
    X305  R331  1
    X305  R425  -0.2987002432346343994140625
    X305  R426  0.106883369386196136474609375
    MARKER0067  'MARKER'  'INTORG'
    X306  COST  0
    X306  R330  0.601860821247100830078125
    X306  R331  -0.0374433696269989013671875
    MARKER0067  'MARKER'  'INTEND'
    X307  COST  0
    X307  R332  1
    X307  R333  1
    X307  R334  1
    X307  R425  0.3018043041229248046875
    X307  R426  -0.332096636295318603515625
    MARKER0068  'MARKER'  'INTORG'
    X308  COST  0
    X308  R333  0.2138787806034088134765625
    X308  R334  -0.4552326202392578125
    MARKER0068  'MARKER'  'INTEND'
    X309  COST  0
    X309  R335  1
    X309  R336  1
    X309  R337  1
    X309  R425  0.22150169312953948974609375
    X309  R426  -0.310296952724456787109375
    MARKER0069  'MARKER'  'INTORG'
    X310  COST  0
    X310  R336  0.23520256578922271728515625
    X310  R337  -0.4140829741954803466796875
    MARKER0069  'MARKER'  'INTEND'
    X311  COST  0
    X311  R338  1
    X311  R339  1
    X311  R340  1
    X311  R425  0.090269200503826141357421875
    X311  R426  -0.296832382678985595703125
    MARKER0070  'MARKER'  'INTORG'
    X312  COST  0
    X312  R339  0.052410356700420379638671875
    X312  R340  -0.54164350032806396484375
    MARKER0070  'MARKER'  'INTEND'
    X313  COST  0
    X313  R341  1
    X313  R342  1
    X313  R343  1
    X313  R425  0.4412812888622283935546875
    X313  R426  -0.4228172004222869873046875
    MARKER0071  'MARKER'  'INTORG'
    X314  COST  0
    X314  R342  0.07009766995906829833984375
    X314  R343  -0.630686283111572265625
    MARKER0071  'MARKER'  'INTEND'
    X315  COST  0
    X315  R344  1
    X315  R345  1
    X315  R346  1
    X315  R425  0.3910322487354278564453125
    X315  R426  -0.39694881439208984375
    MARKER0072  'MARKER'  'INTORG'
    X316  COST  0
    X316  R345  0.18616206943988800048828125
    X316  R346  -0.632912099361419677734375
    MARKER0072  'MARKER'  'INTEND'
    X317  COST  0
    X317  R425  -0.55466473102569580078125
    X317  R426  0.65773546695709228515625
    X318  COST  0
    X318  R347  1
    X318  R348  1
    X318  R349  1
    X318  R425  0.15407796204090118408203125
    X318  R426  -0.418974816799163818359375
    MARKER0073  'MARKER'  'INTORG'
    X319  COST  0
    X319  R348  0.1414639949798583984375
    X319  R349  -0.511066854000091552734375
    MARKER0073  'MARKER'  'INTEND'
    X320  COST  0
    X320  R350  1
    X320  R351  1
    X320  R352  1
    X320  R425  0.309099733829498291015625
    X320  R426  -0.36059224605560302734375
    MARKER0074  'MARKER'  'INTORG'
    X321  COST  0
    X321  R351  0.17529867589473724365234375
    X321  R352  -0.691204130649566650390625
    MARKER0074  'MARKER'  'INTEND'
    X322  COST  0
    X322  R425  -0.481980025768280029296875
    X322  R426  0.6034204959869384765625
    X323  COST  0
    X323  R353  1
    X323  R354  1
    X323  R355  1
    X323  R425  0.4293393790721893310546875
    X323  R426  -0.2617169320583343505859375
    MARKER0075  'MARKER'  'INTORG'
    X324  COST  0
    X324  R354  0.38300645351409912109375
    X324  R355  -0.225200176239013671875
    MARKER0075  'MARKER'  'INTEND'
    X325  COST  0
    X325  R356  1
    X325  R357  1
    X325  R358  1
    X325  R425  0.144077479839324951171875
    X325  R426  -0.1224671900272369384765625
    MARKER0076  'MARKER'  'INTORG'
    X326  COST  0
    X326  R357  0.0390057899057865142822265625
    X326  R358  -0.4697038829326629638671875
    MARKER0076  'MARKER'  'INTEND'
    X327  COST  0
    X327  R359  1
    X327  R360  1
    X327  R361  1
    X327  R425  -0.478998720645904541015625
    X327  R426  0.432279527187347412109375
    MARKER0077  'MARKER'  'INTORG'
    X328  COST  0
    X328  R360  0.3706720769405364990234375
    X328  R361  -0.18700468540191650390625
    MARKER0077  'MARKER'  'INTEND'
    X329  COST  0
    X329  R362  1
    X329  R363  1
    X329  R364  1
    X329  R425  -0.320804059505462646484375
    X329  R426  0.52659952640533447265625
    MARKER0078  'MARKER'  'INTORG'
    X330  COST  0
    X330  R363  0.52808892726898193359375
    X330  R364  -0.2595925033092498779296875
    MARKER0078  'MARKER'  'INTEND'
    X331  COST  0
    X331  R365  1
    X331  R366  1
    X331  R367  1
    X331  R425  -0.54346287250518798828125
    X331  R426  0.666182100772857666015625
    MARKER0079  'MARKER'  'INTORG'
    X332  COST  0
    X332  R366  0.7306976318359375
    X332  R367  -0.22493363916873931884765625
    MARKER0079  'MARKER'  'INTEND'
    X333  COST  0
    X333  R368  1
    X333  R369  1
    X333  R370  1
    X333  R425  -0.5667941570281982421875
    X333  R426  0.902256548404693603515625
    MARKER0080  'MARKER'  'INTORG'
    X334  COST  0
    X334  R369  0.93207275867462158203125
    X334  R370  -0.027720630168914794921875
    MARKER0080  'MARKER'  'INTEND'
    X335  COST  0
    X335  R371  1
    X335  R372  1
    X335  R373  1
    X335  R425  0.72917282581329345703125
    X335  R426  -0.491238653659820556640625
    MARKER0081  'MARKER'  'INTORG'
    X336  COST  0
    X336  R372  0.19213259220123291015625
    X336  R373  -0.663403213024139404296875
    MARKER0081  'MARKER'  'INTEND'
    X337  COST  0
    X337  R374  1
    X337  R375  1
    X337  R376  1
    X337  R425  -0.752171576023101806640625
    X337  R426  0.666948258876800537109375
    MARKER0082  'MARKER'  'INTORG'
    X338  COST  0
    X338  R375  0.659713268280029296875
    X338  R376  -0.22643516957759857177734375
    MARKER0082  'MARKER'  'INTEND'
    X339  COST  0
    X339  R377  1
    X339  R378  1
    X339  R379  1
    X339  R425  0.113880209624767303466796875
    X339  R426  -0.3421628177165985107421875
    MARKER0083  'MARKER'  'INTORG'
    X340  COST  0
    X340  R378  0.2081716060638427734375
    X340  R379  -0.4940311014652252197265625
    MARKER0083  'MARKER'  'INTEND'
    X341  COST  0
    X341  R380  1
    X341  R381  1
    X341  R382  1
    X341  R425  -0.476329863071441650390625
    X341  R426  0.4538498818874359130859375
    MARKER0084  'MARKER'  'INTORG'
    X342  COST  0
    X342  R381  0.39224040508270263671875
    X342  R382  -0.276719748973846435546875
    MARKER0084  'MARKER'  'INTEND'
    X343  COST  0
    X343  R383  1
    X343  R384  1
    X343  R385  1
    X343  R425  -0.640140593051910400390625
    X343  R426  0.857824742794036865234375
    MARKER0085  'MARKER'  'INTORG'
    X344  COST  0
    X344  R384  0.3843651711940765380859375
    X344  R385  -0.553572714328765869140625
    MARKER0085  'MARKER'  'INTEND'
    X345  COST  0
    X345  R386  1
    X345  R387  1
    X345  R388  1
    X345  R425  0.4343801438808441162109375
    X345  R426  -0.3997634947299957275390625
    MARKER0086  'MARKER'  'INTORG'
    X346  COST  0
    X346  R387  0.15831781923770904541015625
    X346  R388  -0.79784309864044189453125
    MARKER0086  'MARKER'  'INTEND'
    X347  COST  0
    X347  R389  1
    X347  R390  1
    X347  R391  1
    X347  R425  0.3211643993854522705078125
    X347  R426  -0.3762227594852447509765625
    MARKER0087  'MARKER'  'INTORG'
    X348  COST  0
    X348  R390  0.3172970116138458251953125
    X348  R391  -0.4416134357452392578125
    MARKER0087  'MARKER'  'INTEND'
    X349  COST  0
    X349  R392  1
    X349  R393  1
    X349  R394  1
    X349  R425  -0.61032211780548095703125
    X349  R426  0.7764408588409423828125
    MARKER0088  'MARKER'  'INTORG'
    X350  COST  0
    X350  R393  0.336934506893157958984375
    X350  R394  -0.460119903087615966796875
    MARKER0088  'MARKER'  'INTEND'
    X351  COST  0
    X351  R395  1
    X351  R396  1
    X351  R397  1
    X351  R425  0.499951899051666259765625
    X351  R426  -0.65228378772735595703125
    MARKER0089  'MARKER'  'INTORG'
    X352  COST  0
    X352  R396  0.3366846144199371337890625
    X352  R397  -0.4167269170284271240234375
    MARKER0089  'MARKER'  'INTEND'
    X353  COST  0
    X353  R398  1
    X353  R399  1
    X353  R400  1
    X353  R425  0.3190777301788330078125
    X353  R426  -0.2376511096954345703125
    MARKER0090  'MARKER'  'INTORG'
    X354  COST  0
    X354  R399  0.12884275615215301513671875
    X354  R400  -0.4152410030364990234375
    MARKER0090  'MARKER'  'INTEND'
    X355  COST  0
    X355  R425  -0.58452451229095458984375
    X355  R426  0.218055903911590576171875
    X356  COST  0
    X356  R401  1
    X356  R402  1
    X356  R403  1
    X356  R425  0.461538255214691162109375
    X356  R426  -0.610478222370147705078125
    MARKER0091  'MARKER'  'INTORG'
    X357  COST  0
    X357  R402  0.35858058929443359375
    X357  R403  -0.3504028022289276123046875
    MARKER0091  'MARKER'  'INTEND'
    X358  COST  0
    X358  R404  1
    X358  R405  1
    X358  R406  1
    X358  R425  0.4195136129856109619140625
    X358  R426  -0.3568138778209686279296875
    MARKER0092  'MARKER'  'INTORG'
    X359  COST  0
    X359  R405  0.185604393482208251953125
    X359  R406  -0.583766758441925048828125
    MARKER0092  'MARKER'  'INTEND'
    X360  COST  0
    X360  R425  -0.3703474104404449462890625
    X360  R426  0.375436604022979736328125
    X361  COST  0
    X361  R407  1
    X361  R408  1
    X361  R409  1
    X361  R425  -0.620640695095062255859375
    X361  R426  0.6438090801239013671875
    MARKER0093  'MARKER'  'INTORG'
    X362  COST  0
    X362  R408  0.52609360218048095703125
    X362  R409  -0.23175908625125885009765625
    MARKER0093  'MARKER'  'INTEND'
    X363  COST  0
    X363  R425  -0.62686574459075927734375
    X363  R426  0.48040068149566650390625
    X364  COST  0
    X364  R410  1
    X364  R411  1
    X364  R412  1
    X364  R425  0.3554205596446990966796875
    X364  R426  0.0081696100533008575439453125
    MARKER0094  'MARKER'  'INTORG'
    X365  COST  0
    X365  R411  0.102240957319736480712890625
    X365  R412  -0.547019898891448974609375
    MARKER0094  'MARKER'  'INTEND'
    X366  COST  0
    X366  R425  -0.94411075115203857421875
    X366  R426  0.74488961696624755859375
    X367  COST  0
    X367  R413  1
    X367  R414  1
    X367  R415  1
    X367  R425  0.21556155383586883544921875
    X367  R426  -0.2037250101566314697265625
    MARKER0095  'MARKER'  'INTORG'
    X368  COST  0
    X368  R414  0.3519948422908782958984375
    X368  R415  -0.23812188208103179931640625
    MARKER0095  'MARKER'  'INTEND'
    X369  COST  0
    X369  R416  1
    X369  R417  1
    X369  R418  1
    X369  R425  0.289555072784423828125
    X369  R426  -0.20831859111785888671875
    MARKER0096  'MARKER'  'INTORG'
    X370  COST  0
    X370  R417  0.09293200075626373291015625
    X370  R418  -0.559662878513336181640625
    MARKER0096  'MARKER'  'INTEND'
    X371  COST  0
    X371  R419  1
    X371  R420  1
    X371  R421  1
    X371  R425  0.082836128771305084228515625
    X371  R426  0.00226787826977670192718505859375
    MARKER0097  'MARKER'  'INTORG'
    X372  COST  0
    X372  R420  0.07791526615619659423828125
    X372  R421  -0.23907931149005889892578125
    MARKER0097  'MARKER'  'INTEND'
    X373  COST  0
    X373  R422  1
    X373  R423  1
    X373  R424  1
    X373  R425  0.27999782562255859375
    X373  R426  -0.13288666307926177978515625
    MARKER0098  'MARKER'  'INTORG'
    X374  COST  0
    X374  R423  0.13162524998188018798828125
    X374  R424  -0.5237064361572265625
    MARKER0098  'MARKER'  'INTEND'
    X375  COST  0
    X375  R425  -1
    X375  R427  1
    X376  COST  0
    X376  R426  -1
    X376  R427  -1
RHS
    RHS  R0  0.1273513734340667724609375
    RHS  R1  -0.0537618733942508697509765625
    RHS  R2  0.15470378100872039794921875
    RHS  R3  -0.04337881505489349365234375
    RHS  R4  0.1569474637508392333984375
    RHS  R5  0.16672278940677642822265625
    RHS  R6  0.02993669174611568450927734375
    RHS  R7  0.084171660244464874267578125
    RHS  R8  0.127462327480316162109375
    RHS  R9  -0.0299800373613834381103515625
    RHS  R10  0.2229959964752197265625
    RHS  R11  0.085856921970844268798828125
    RHS  R12  0.108433015644550323486328125
    RHS  R13  0.0350210554897785186767578125
    RHS  R14  0.0801427662372589111328125
    RHS  R15  0.17571140825748443603515625
    RHS  R16  0.16602002084255218505859375
    RHS  R17  -0.05070061981678009033203125
    RHS  R18  0.20786340534687042236328125
    RHS  R19  -0.1643738448619842529296875
    RHS  R20  0.13503934442996978759765625
    RHS  R21  -0.12811322510242462158203125
    RHS  R22  0.114177405834197998046875
    RHS  R23  0.014617197215557098388671875
    RHS  R24  0.1638762950897216796875
    RHS  R25  0.15976391732692718505859375
    RHS  R26  -0.0933070480823516845703125
    RHS  R27  0.081998400390148162841796875
    RHS  R28  0.11932814121246337890625
    RHS  R29  0.1521215140819549560546875
    RHS  R30  -0.02236809767782688140869140625
    RHS  R31  0.12824523448944091796875
    RHS  R32  0.096084602177143096923828125
    RHS  R33  -0.000533153302967548370361328125
    RHS  R34  0.1087381839752197265625
    RHS  R35  0.15784008800983428955078125
    RHS  R36  0.17667944729328155517578125
    RHS  R37  -0.087408341467380523681640625
    RHS  R38  0.14317916333675384521484375
    RHS  R39  0.108581721782684326171875
    RHS  R40  0.18116752803325653076171875
    RHS  R41  -0.139595687389373779296875
    RHS  R42  0.12337277829647064208984375
    RHS  R43  0.098542235791683197021484375
    RHS  R44  0.181048214435577392578125
    RHS  R45  -0.0235764682292938232421875
    RHS  R46  0.118420965969562530517578125
    RHS  R47  0.1916920840740203857421875
    RHS  R48  -0.0177850537002086639404296875
    RHS  R49  0.0046329763717949390411376953125
    RHS  R50  0.12588019669055938720703125
    RHS  R51  0.02807000838220119476318359375
    RHS  R52  -0.025281347334384918212890625
    RHS  R53  0.17019064724445343017578125
    RHS  R54  0.17615209519863128662109375
    RHS  R55  0.22024007141590118408203125
    RHS  R56  0.033346630632877349853515625
    RHS  R57  -0.080400802195072174072265625
    RHS  R58  0.091381512582302093505859375
    RHS  R59  0.2661451399326324462890625
    RHS  R60  -0.0313469506800174713134765625
    RHS  R61  -0.059926129877567291259765625
    RHS  R62  0.086902059614658355712890625
    RHS  R63  -0.12634204328060150146484375
    RHS  R64  0.12604795396327972412109375
    RHS  R65  0.1479542255401611328125
    RHS  R66  0.13816253840923309326171875
    RHS  R67  0.15347440540790557861328125
    RHS  R68  0.099284969270229339599609375
    RHS  R69  0.105197511613368988037109375
    RHS  R70  -0.0285190381109714508056640625
    RHS  R71  0.065085805952548980712890625
    RHS  R72  0.08462212979793548583984375
    RHS  R73  0.014224432408809661865234375
    RHS  R74  0.0944055616855621337890625
    RHS  R75  0.17531274259090423583984375
    RHS  R76  -0.00109181739389896392822265625
    RHS  R77  0.04104240238666534423828125
    RHS  R78  -0.14091265201568603515625
    RHS  R79  0.20168888568878173828125
    RHS  R80  0.080579459667205810546875
    RHS  R81  0.0615260340273380279541015625
    RHS  R82  0.0309986285865306854248046875
    RHS  R83  0.087246321141719818115234375
    RHS  R84  0.093263767659664154052734375
    RHS  R85  0.0618521608412265777587890625
    RHS  R86  0.19558565318584442138671875
    RHS  R87  0.045529566705226898193359375
    RHS  R88  0.076701156795024871826171875
    RHS  R89  -0.116823174059391021728515625
    RHS  R90  -0.01760233938694000244140625
    RHS  R91  -0.121928609907627105712890625
    RHS  R92  0.0627526342868804931640625
    RHS  R93  -0.0477620251476764678955078125
    RHS  R94  0.20614387094974517822265625
    RHS  R95  0.072920523583889007568359375
    RHS  R96  0.0283507145941257476806640625
    RHS  R97  0.12465445697307586669921875
    RHS  R98  0.101945698261260986328125
    RHS  R99  -0.10406635701656341552734375
    RHS  R100  -0.0474765039980411529541015625
    RHS  R101  0.114261813461780548095703125
    RHS  R102  0.104396812617778778076171875
    RHS  R103  0.18662451207637786865234375
    RHS  R104  -0.1306323707103729248046875
    RHS  R105  0.235115468502044677734375
    RHS  R106  0.090996325016021728515625
    RHS  R107  0.15634886920452117919921875
    RHS  R108  -0.123779542744159698486328125
    RHS  R109  0.11717498302459716796875
    RHS  R110  0.16776664555072784423828125
    RHS  R111  0.0207365863025188446044921875
    RHS  R112  0.03005926497280597686767578125
    RHS  R113  0.15008039772510528564453125
    RHS  R114  0.1202833354473114013671875
    RHS  R115  0.10581828653812408447265625
    RHS  R116  0.13317902386188507080078125
    RHS  R117  0.1119758188724517822265625
    RHS  R118  0.09189273416996002197265625
    RHS  R119  0.099593333899974822998046875
    RHS  R120  0.13986729085445404052734375
    RHS  R121  0.13702480494976043701171875
    RHS  R122  -0.0282806418836116790771484375
    RHS  R123  0.2038939297199249267578125
    RHS  R124  0.003995557315647602081298828125
    RHS  R125  -0.0699853003025054931640625
    RHS  R126  0.07055972516536712646484375
    RHS  R127  -0.057837359607219696044921875
    RHS  R128  0
    RHS  R129  0.731597244739532470703125
    RHS  R130  0
    RHS  R131  0
    RHS  R132  0.8604099750518798828125
    RHS  R133  0
    RHS  R134  0
    RHS  R135  0.05314075946807861328125
    RHS  R136  0
    RHS  R137  0
    RHS  R138  0.738815009593963623046875
    RHS  R139  0
    RHS  R140  0
    RHS  R141  0.579002439975738525390625
    RHS  R142  0
    RHS  R143  0
    RHS  R144  0.647376120090484619140625
    RHS  R145  0
    RHS  R146  0
    RHS  R147  0.63419568538665771484375
    RHS  R148  0
    RHS  R149  0
    RHS  R150  0.3915937244892120361328125
    RHS  R151  0
    RHS  R152  0
    RHS  R153  0.23674999177455902099609375
    RHS  R154  0
    RHS  R155  0
    RHS  R156  0.2592715919017791748046875
    RHS  R157  0
    RHS  R158  0
    RHS  R159  0.16468052566051483154296875
    RHS  R160  0
    RHS  R161  0
    RHS  R162  0.59351623058319091796875
    RHS  R163  0
    RHS  R164  0
    RHS  R165  0.64735305309295654296875
    RHS  R166  0
    RHS  R167  0
    RHS  R168  0.15179328620433807373046875
    RHS  R169  0
    RHS  R170  0
    RHS  R171  0.760204315185546875
    RHS  R172  0
    RHS  R173  0
    RHS  R174  0.0710892975330352783203125
    RHS  R175  0
    RHS  R176  0
    RHS  R177  0.504109323024749755859375
    RHS  R178  0
    RHS  R179  0
    RHS  R180  0.082513608038425445556640625
    RHS  R181  0
    RHS  R182  0
    RHS  R183  0.78666865825653076171875
    RHS  R184  0
    RHS  R185  0
    RHS  R186  0.36285793781280517578125
    RHS  R187  0
    RHS  R188  0
    RHS  R189  0.2383586466312408447265625
    RHS  R190  0
    RHS  R191  0
    RHS  R192  0.802013218402862548828125
    RHS  R193  0
    RHS  R194  0
    RHS  R195  0.388770878314971923828125
    RHS  R196  0
    RHS  R197  0
    RHS  R198  0.043253771960735321044921875
    RHS  R199  0
    RHS  R200  0
    RHS  R201  0.24397771060466766357421875
    RHS  R202  0
    RHS  R203  0
    RHS  R204  0.0205628834664821624755859375
    RHS  R205  0
    RHS  R206  0
    RHS  R207  0.78859436511993408203125
    RHS  R208  0
    RHS  R209  0
    RHS  R210  0.91599524021148681640625
    RHS  R211  0
    RHS  R212  0
    RHS  R213  0.058357559144496917724609375
    RHS  R214  0
    RHS  R215  0
    RHS  R216  0.47144603729248046875
    RHS  R217  0
    RHS  R218  0
    RHS  R219  0.349228799343109130859375
    RHS  R220  0
    RHS  R221  0
    RHS  R222  0.4796477854251861572265625
    RHS  R223  0
    RHS  R224  0
    RHS  R225  0.1657959520816802978515625
    RHS  R226  0
    RHS  R227  0
    RHS  R228  0.4545753896236419677734375
    RHS  R229  0
    RHS  R230  0
    RHS  R231  0.2587183415889739990234375
    RHS  R232  0
    RHS  R233  0
    RHS  R234  0.2761267125606536865234375
    RHS  R235  0
    RHS  R236  0
    RHS  R237  0.0446261204779148101806640625
    RHS  R238  0
    RHS  R239  0
    RHS  R240  0.2711031436920166015625
    RHS  R241  0
    RHS  R242  0
    RHS  R243  0.2761895954608917236328125
    RHS  R244  0
    RHS  R245  0
    RHS  R246  0.27448093891143798828125
    RHS  R247  0
    RHS  R248  0
    RHS  R249  0.106980271637439727783203125
    RHS  R250  0
    RHS  R251  0
    RHS  R252  1.04834854602813720703125
    RHS  R253  0
    RHS  R254  0
    RHS  R255  0.503982245922088623046875
    RHS  R256  0
    RHS  R257  0
    RHS  R258  0.62286221981048583984375
    RHS  R259  0
    RHS  R260  0
    RHS  R261  0.3699274957180023193359375
    RHS  R262  0
    RHS  R263  0
    RHS  R264  0.0389323942363262176513671875
    RHS  R265  0
    RHS  R266  0
    RHS  R267  0.472499907016754150390625
    RHS  R268  0
    RHS  R269  0
    RHS  R270  0.60943543910980224609375
    RHS  R271  0
    RHS  R272  0
    RHS  R273  0.2936851978302001953125
    RHS  R274  0
    RHS  R275  0
    RHS  R276  0.54695332050323486328125
    RHS  R277  0
    RHS  R278  0
    RHS  R279  0.4350070059299468994140625
    RHS  R280  0
    RHS  R281  0
    RHS  R282  0.2227900326251983642578125
    RHS  R283  0
    RHS  R284  0
    RHS  R285  0.310038387775421142578125
    RHS  R286  0
    RHS  R287  0
    RHS  R288  0.0535987913608551025390625
    RHS  R289  0
    RHS  R290  0
    RHS  R291  0.0004505626857280731201171875
    RHS  R292  0
    RHS  R293  0
    RHS  R294  0.3357230126857757568359375
    RHS  R295  0
    RHS  R296  0
    RHS  R297  0.53754317760467529296875
    RHS  R298  0
    RHS  R299  0
    RHS  R300  0.118598021566867828369140625
    RHS  R301  0
    RHS  R302  0
    RHS  R303  0.3320908844470977783203125
    RHS  R304  0
    RHS  R305  0
    RHS  R306  0.670063793659210205078125
    RHS  R307  0
    RHS  R308  0
    RHS  R309  0.2622093260288238525390625
    RHS  R310  0
    RHS  R311  0
    RHS  R312  0.28871452808380126953125
    RHS  R313  0
    RHS  R314  0
    RHS  R315  0.773484170436859130859375
    RHS  R316  0
    RHS  R317  0
    RHS  R318  0.6119329929351806640625
    RHS  R319  0
    RHS  R320  0
    RHS  R321  0.069752395153045654296875
    RHS  R322  0
    RHS  R323  0
    RHS  R324  0.592053830623626708984375
    RHS  R325  0
    RHS  R326  0
    RHS  R327  0.4301665723323822021484375
    RHS  R328  0
    RHS  R329  0
    RHS  R330  0.601860821247100830078125
    RHS  R331  0
    RHS  R332  0
    RHS  R333  0.2138787806034088134765625
    RHS  R334  0
    RHS  R335  0
    RHS  R336  0.23520256578922271728515625
    RHS  R337  0
    RHS  R338  0
    RHS  R339  0.052410356700420379638671875
    RHS  R340  0
    RHS  R341  0
    RHS  R342  0.07009766995906829833984375
    RHS  R343  0
    RHS  R344  0
    RHS  R345  0.18616206943988800048828125
    RHS  R346  0
    RHS  R347  0
    RHS  R348  0.1414639949798583984375
    RHS  R349  0
    RHS  R350  0
    RHS  R351  0.17529867589473724365234375
    RHS  R352  0
    RHS  R353  0
    RHS  R354  0.38300645351409912109375
    RHS  R355  0
    RHS  R356  0
    RHS  R357  0.0390057899057865142822265625
    RHS  R358  0
    RHS  R359  0
    RHS  R360  0.3706720769405364990234375
    RHS  R361  0
    RHS  R362  0
    RHS  R363  0.52808892726898193359375
    RHS  R364  0
    RHS  R365  0
    RHS  R366  0.7306976318359375
    RHS  R367  0
    RHS  R368  0
    RHS  R369  0.93207275867462158203125
    RHS  R370  0
    RHS  R371  0
    RHS  R372  0.19213259220123291015625
    RHS  R373  0
    RHS  R374  0
    RHS  R375  0.659713268280029296875
    RHS  R376  0
    RHS  R377  0
    RHS  R378  0.2081716060638427734375
    RHS  R379  0
    RHS  R380  0
    RHS  R381  0.39224040508270263671875
    RHS  R382  0
    RHS  R383  0
    RHS  R384  0.3843651711940765380859375
    RHS  R385  0
    RHS  R386  0
    RHS  R387  0.15831781923770904541015625
    RHS  R388  0
    RHS  R389  0
    RHS  R390  0.3172970116138458251953125
    RHS  R391  0
    RHS  R392  0
    RHS  R393  0.336934506893157958984375
    RHS  R394  0
    RHS  R395  0
    RHS  R396  0.3366846144199371337890625
    RHS  R397  0
    RHS  R398  0
    RHS  R399  0.12884275615215301513671875
    RHS  R400  0
    RHS  R401  0
    RHS  R402  0.35858058929443359375
    RHS  R403  0
    RHS  R404  0
    RHS  R405  0.185604393482208251953125
    RHS  R406  0
    RHS  R407  0
    RHS  R408  0.52609360218048095703125
    RHS  R409  0
    RHS  R410  0
    RHS  R411  0.102240957319736480712890625
    RHS  R412  0
    RHS  R413  0
    RHS  R414  0.3519948422908782958984375
    RHS  R415  0
    RHS  R416  0
    RHS  R417  0.09293200075626373291015625
    RHS  R418  0
    RHS  R419  0
    RHS  R420  0.07791526615619659423828125
    RHS  R421  0
    RHS  R422  0
    RHS  R423  0.13162524998188018798828125
    RHS  R424  0
    RHS  R425  -0.19573132693767547607421875
    RHS  R426  0.19573128223419189453125
    RHS  R427  0
BOUNDS
 LO BND  X0  0.07563905417919158935546875
 UP BND  X0  0.19771659374237060546875
 LO BND  X1  0.07207970321178436279296875
 UP BND  X1  0.212844431400299072265625
 LO BND  X2  0.2593362033367156982421875
 UP BND  X2  0.3697040379047393798828125
 LO BND  X3  -0.16875994205474853515625
 UP BND  X3  -0.0658657252788543701171875
 LO BND  X4  -0.077450282871723175048828125
 UP BND  X4  -0.041913688182830810546875
 LO BND  X5  0.180917084217071533203125
 UP BND  X5  0.2817851006984710693359375
 LO BND  X6  -0.2177624404430389404296875
 UP BND  X6  -0.1683338582515716552734375
 LO BND  X7  0.013028092682361602783203125
 UP BND  X7  0.02951752953231334686279296875
 LO BND  X8  0.009892222471535205841064453125
 UP BND  X8  0.1478168070316314697265625
 LO BND  X9  -0.0926093757152557373046875
 UP BND  X9  -0.011337973177433013916015625
 LO BND  X10  0.021242596209049224853515625
 UP BND  X10  0.109291650354862213134765625
 LO BND  X11  -0.23618914186954498291015625
 UP BND  X11  -0.111545778810977935791015625
 LO BND  X12  -0.098019666969776153564453125
 UP BND  X12  -0.067630060017108917236328125
 LO BND  X13  -0.08084256947040557861328125
 UP BND  X13  -0.0042831650935113430023193359375
 LO BND  X14  -0.035214342176914215087890625
 UP BND  X14  0.085338048636913299560546875
 LO BND  X15  -0.00742342509329319000244140625
 UP BND  X15  0.069469355046749114990234375
 LO BND  X16  0.0235523283481597900390625
 UP BND  X16  0.10524547100067138671875
 LO BND  X17  0.0581876970827579498291015625
 UP BND  X17  0.15796719491481781005859375
 LO BND  X18  -0.06901077926158905029296875
 UP BND  X18  -0.00219535711221396923065185546875
 LO BND  X19  0.01595201902091503143310546875
 UP BND  X19  0.0589254759252071380615234375
 LO BND  X20  -0.0491130985319614410400390625
 UP BND  X20  0.02277922444045543670654296875
 LO BND  X21  -0.055972121655941009521484375
 UP BND  X21  -0.015226292423903942108154296875
 LO BND  X22  -0.003942080773413181304931640625
 UP BND  X22  0.0537380836904048919677734375
 LO BND  X23  -0.0073366235010325908660888671875
 UP BND  X23  0.0540162138640880584716796875
 LO BND  X24  -0.05464677512645721435546875
 UP BND  X24  0.0316834859549999237060546875
 LO BND  X25  -0.01040391437709331512451171875
 UP BND  X25  0.061796955764293670654296875
 LO BND  X26  -0.055649571120738983154296875
 UP BND  X26  0.101233907043933868408203125
 LO BND  X27  -0.0484120957553386688232421875
 UP BND  X27  0.06800855696201324462890625
 LO BND  X28  0.01376546360552310943603515625
 UP BND  X28  0.06126590073108673095703125
 LO BND  X29  -0.108915932476520538330078125
 UP BND  X29  0.02057206071913242340087890625
 FR BND  X30
 FR BND  X31
 FR BND  X32
 FR BND  X33
 FR BND  X34
 FR BND  X35
 FR BND  X36
 FR BND  X37
 FR BND  X38
 FR BND  X39
 FR BND  X40
 FR BND  X41
 FR BND  X42
 FR BND  X43
 FR BND  X44
 FR BND  X45
 FR BND  X46
 FR BND  X47
 FR BND  X48
 FR BND  X49
 FR BND  X50
 FR BND  X51
 FR BND  X52
 FR BND  X53
 FR BND  X54
 FR BND  X55
 FR BND  X56
 FR BND  X57
 FR BND  X58
 FR BND  X59
 FR BND  X60
 FR BND  X61
 FR BND  X62
 FR BND  X63
 FR BND  X64
 FR BND  X65
 FR BND  X66
 FR BND  X67
 FR BND  X68
 FR BND  X69
 FR BND  X70
 FR BND  X71
 FR BND  X72
 FR BND  X73
 FR BND  X74
 FR BND  X75
 FR BND  X76
 FR BND  X77
 FR BND  X78
 FR BND  X79
 FR BND  X80
 FR BND  X81
 FR BND  X82
 FR BND  X83
 FR BND  X84
 FR BND  X85
 FR BND  X86
 FR BND  X87
 FR BND  X88
 FR BND  X89
 FR BND  X90
 FR BND  X91
 FR BND  X92
 FR BND  X93
 FR BND  X94
 FR BND  X95
 FR BND  X96
 FR BND  X97
 FR BND  X98
 FR BND  X99
 FR BND  X100
 FR BND  X101
 FR BND  X102
 FR BND  X103
 FR BND  X104
 FR BND  X105
 FR BND  X106
 FR BND  X107
 FR BND  X108
 FR BND  X109
 FR BND  X110
 FR BND  X111
 FR BND  X112
 FR BND  X113
 FR BND  X114
 FR BND  X115
 FR BND  X116
 FR BND  X117
 FR BND  X118
 FR BND  X119
 FR BND  X120
 FR BND  X121
 FR BND  X122
 FR BND  X123
 FR BND  X124
 FR BND  X125
 FR BND  X126
 FR BND  X127
 FR BND  X128
 FR BND  X129
 FR BND  X130
 FR BND  X131
 FR BND  X132
 FR BND  X133
 FR BND  X134
 FR BND  X135
 FR BND  X136
 FR BND  X137
 FR BND  X138
 FR BND  X139
 FR BND  X140
 FR BND  X141
 FR BND  X142
 FR BND  X143
 FR BND  X144
 FR BND  X145
 FR BND  X146
 FR BND  X147
 FR BND  X148
 FR BND  X149
 FR BND  X150
 FR BND  X151
 FR BND  X152
 FR BND  X153
 FR BND  X154
 FR BND  X155
 FR BND  X156
 FR BND  X157
 UP BND  X158  0.04023253917694091796875
 UP BND  X159  1
 UP BND  X160  0.05632124841213226318359375
 UP BND  X161  1
 UP BND  X162  0.68002521991729736328125
 UP BND  X163  1
 FX BND  X164  0
 UP BND  X165  0.09199868142604827880859375
 UP BND  X166  1
 UP BND  X167  0.0689256191253662109375
 UP BND  X168  1
 UP BND  X169  0.361340999603271484375
 UP BND  X170  1
 FX BND  X171  0
 UP BND  X172  0.251130402088165283203125
 UP BND  X173  1
 UP BND  X174  0.3543269634246826171875
 UP BND  X175  1
 UP BND  X176  0.3708010613918304443359375
 UP BND  X177  1
 UP BND  X178  0.378276824951171875
 UP BND  X179  1
 UP BND  X180  0.4485175907611846923828125
 UP BND  X181  1
 UP BND  X182  0.3575060367584228515625
 UP BND  X183  1
 UP BND  X184  0.17776907980442047119140625
 UP BND  X185  1
 UP BND  X186  0.3911454677581787109375
 UP BND  X187  1
 UP BND  X188  0.12894941866397857666015625
 UP BND  X189  1
 UP BND  X190  0.577648460865020751953125
 UP BND  X191  1
 FX BND  X192  0
 UP BND  X193  0.1622054874897003173828125
 UP BND  X194  1
 UP BND  X195  0.643140316009521484375
 UP BND  X196  1
 UP BND  X197  0.126776754856109619140625
 UP BND  X198  1
 UP BND  X199  0.3903361856937408447265625
 UP BND  X200  1
 UP BND  X201  0.4533622264862060546875
 UP BND  X202  1
 UP BND  X203  0.002580739557743072509765625
 UP BND  X204  1
 FX BND  X205  0
 UP BND  X206  0.3619355261325836181640625
 UP BND  X207  1
 UP BND  X208  0.613730609416961669921875
 UP BND  X209  1
 FX BND  X210  0
 UP BND  X211  0.638556182384490966796875
 UP BND  X212  1
 UP BND  X213  0.536478340625762939453125
 UP BND  X214  1
 FX BND  X215  0
 UP BND  X216  0.0341531336307525634765625
 UP BND  X217  1
 UP BND  X218  0.02495895326137542724609375
 UP BND  X219  1
 UP BND  X220  0.698637783527374267578125
 UP BND  X221  1
 UP BND  X222  0.13689906895160675048828125
 UP BND  X223  1
 UP BND  X224  0.301095426082611083984375
 UP BND  X225  1
 UP BND  X226  0.22609989345073699951171875
 UP BND  X227  1
 UP BND  X228  0.46927535533905029296875
 UP BND  X229  1
 FX BND  X230  0
 UP BND  X231  0.315341174602508544921875
 UP BND  X232  1
 FX BND  X233  0
 UP BND  X234  0.4533536732196807861328125
 UP BND  X235  1
 UP BND  X236  0.439081251621246337890625
 UP BND  X237  1
 FX BND  X238  0
 UP BND  X239  0.502169072628021240234375
 UP BND  X240  1
 UP BND  X241  0.472147405147552490234375
 UP BND  X242  1
 UP BND  X243  0.625456869602203369140625
 UP BND  X244  1
 UP BND  X245  0.2811825275421142578125
 UP BND  X246  1
 UP BND  X247  0.470219433307647705078125
 UP BND  X248  1
 UP BND  X249  0.0032714307308197021484375
 UP BND  X250  1
 UP BND  X251  0.519449532032012939453125
 UP BND  X252  1
 UP BND  X253  0.2867166996002197265625
 UP BND  X254  1
 FX BND  X255  0
 UP BND  X256  0.23364602029323577880859375
 UP BND  X257  1
 FX BND  X258  0
 UP BND  X259  0.5585677623748779296875
 UP BND  X260  1
 UP BND  X261  0.3397902548313140869140625
 UP BND  X262  1
 UP BND  X263  0.06138463318347930908203125
 UP BND  X264  1
 FX BND  X265  0
 FX BND  X266  0
 UP BND  X267  0.337206542491912841796875
 UP BND  X268  1
 UP BND  X269  0.2857628762722015380859375
 UP BND  X270  1
 UP BND  X271  0.20095728337764739990234375
 UP BND  X272  1
 UP BND  X273  0.4028390944004058837890625
 UP BND  X274  1
 UP BND  X275  0.4422396123409271240234375
 UP BND  X276  1
 UP BND  X277  0.75672709941864013671875
 UP BND  X278  1
 UP BND  X279  0.69137299060821533203125
 UP BND  X280  1
 UP BND  X281  0.39740288257598876953125
 UP BND  X282  1
 UP BND  X283  0.297787189483642578125
 UP BND  X284  1
 UP BND  X285  0.69306147098541259765625
 UP BND  X286  1
 UP BND  X287  0.49455368518829345703125
 UP BND  X288  1
 UP BND  X289  0.0600763857364654541015625
 UP BND  X290  1
 UP BND  X291  0.4922737777233123779296875
 UP BND  X292  1
 UP BND  X293  0.2482424676418304443359375
 UP BND  X294  1
 UP BND  X295  0.064478583633899688720703125
 UP BND  X296  1
 UP BND  X297  0.15900994837284088134765625
 UP BND  X298  1
 UP BND  X299  0.657513797283172607421875
 UP BND  X300  1
 UP BND  X301  0.2739898860454559326171875
 UP BND  X302  1
 UP BND  X303  0.3556825816631317138671875
 UP BND  X304  1
 UP BND  X305  0.0374433696269989013671875
 UP BND  X306  1
 UP BND  X307  0.4552326202392578125
 UP BND  X308  1
 UP BND  X309  0.4140829741954803466796875
 UP BND  X310  1
 UP BND  X311  0.54164350032806396484375
 UP BND  X312  1
 UP BND  X313  0.630686283111572265625
 UP BND  X314  1
 UP BND  X315  0.632912099361419677734375
 UP BND  X316  1
 FX BND  X317  0
 UP BND  X318  0.511066854000091552734375
 UP BND  X319  1
 UP BND  X320  0.691204130649566650390625
 UP BND  X321  1
 FX BND  X322  0
 UP BND  X323  0.225200176239013671875
 UP BND  X324  1
 UP BND  X325  0.4697038829326629638671875
 UP BND  X326  1
 UP BND  X327  0.18700468540191650390625
 UP BND  X328  1
 UP BND  X329  0.2595925033092498779296875
 UP BND  X330  1
 UP BND  X331  0.22493363916873931884765625
 UP BND  X332  1
 UP BND  X333  0.027720630168914794921875
 UP BND  X334  1
 UP BND  X335  0.663403213024139404296875
 UP BND  X336  1
 UP BND  X337  0.22643516957759857177734375
 UP BND  X338  1
 UP BND  X339  0.4940311014652252197265625
 UP BND  X340  1
 UP BND  X341  0.276719748973846435546875
 UP BND  X342  1
 UP BND  X343  0.553572714328765869140625
 UP BND  X344  1
 UP BND  X345  0.79784309864044189453125
 UP BND  X346  1
 UP BND  X347  0.4416134357452392578125
 UP BND  X348  1
 UP BND  X349  0.460119903087615966796875
 UP BND  X350  1
 UP BND  X351  0.4167269170284271240234375
 UP BND  X352  1
 UP BND  X353  0.4152410030364990234375
 UP BND  X354  1
 FX BND  X355  0
 UP BND  X356  0.3504028022289276123046875
 UP BND  X357  1
 UP BND  X358  0.583766758441925048828125
 UP BND  X359  1
 FX BND  X360  0
 UP BND  X361  0.23175908625125885009765625
 UP BND  X362  1
 FX BND  X363  0
 UP BND  X364  0.547019898891448974609375
 UP BND  X365  1
 FX BND  X366  0
 UP BND  X367  0.23812188208103179931640625
 UP BND  X368  1
 UP BND  X369  0.559662878513336181640625
 UP BND  X370  1
 UP BND  X371  0.23907931149005889892578125
 UP BND  X372  1
 UP BND  X373  0.5237064361572265625
 UP BND  X374  1
 FR BND  X375
 FR BND  X376
ENDATA
