NAME          NY
OBJSENSE
    MIN
ROWS
 N  COST
 E  R0
 E  R1
 E  R2
 E  R3
 E  R4
 E  R5
 E  R6
 E  R7
 E  R8
 E  R9
 E  R10
 E  R11
 E  R12
 E  R13
 E  R14
 E  R15
 E  R16
 E  R17
 E  R18
 E  R19
 E  R20
 E  R21
 E  R22
 E  R23
 E  R24
 E  R25
 E  R26
 E  R27
 E  R28
 E  R29
 E  R30
 E  R31
 E  R32
 E  R33
 E  R34
 E  R35
 E  R36
 E  R37
 E  R38
 E  R39
 E  R40
 E  R41
 E  R42
 E  R43
 E  R44
 E  R45
 E  R46
 E  R47
 E  R48
 E  R49
 E  R50
 E  R51
 E  R52
 E  R53
 E  R54
 E  R55
 E  R56
 E  R57
 E  R58
 E  R59
 E  R60
 E  R61
 E  R62
 E  R63
 E  R64
 E  R65
 E  R66
 E  R67
 E  R68
 E  R69
 E  R70
 E  R71
 E  R72
 E  R73
 E  R74
 E  R75
 E  R76
 E  R77
 E  R78
 E  R79
 E  R80
 E  R81
 E  R82
 E  R83
 E  R84
 E  R85
 E  R86
 E  R87
 E  R88
 E  R89
 E  R90
 E  R91
 E  R92
 E  R93
 E  R94
 E  R95
 E  R96
 E  R97
 E  R98
 E  R99
 E  R100
 E  R101
 E  R102
 E  R103
 E  R104
 E  R105
 E  R106
 E  R107
 E  R108
 E  R109
 E  R110
 E  R111
 E  R112
 E  R113
 E  R114
 E  R115
 E  R116
 E  R117
 E  R118
 E  R119
 E  R120
 E  R121
 E  R122
 E  R123
 E  R124
 E  R125
 E  R126
 E  R127
 G  R128
 L  R129
 L  R130
 G  R131
 L  R132
 L  R133
 G  R134
 L  R135
 L  R136
 G  R137
 L  R138
 L  R139
 G  R140
 L  R141
 L  R142
 G  R143
 L  R144
 L  R145
 G  R146
 L  R147
 L  R148
 G  R149
 L  R150
 L  R151
 G  R152
 L  R153
 L  R154
 G  R155
 L  R156
 L  R157
 G  R158
 L  R159
 L  R160
 G  R161
 L  R162
 L  R163
 G  R164
 L  R165
 L  R166
 G  R167
 L  R168
 L  R169
 G  R170
 L  R171
 L  R172
 G  R173
 L  R174
 L  R175
 G  R176
 L  R177
 L  R178
 G  R179
 L  R180
 L  R181
 G  R182
 L  R183
 L  R184
 G  R185
 L  R186
 L  R187
 G  R188
 L  R189
 L  R190
 G  R191
 L  R192
 L  R193
 G  R194
 L  R195
 L  R196
 G  R197
 L  R198
 L  R199
 G  R200
 L  R201
 L  R202
 G  R203
 L  R204
 L  R205
 G  R206
 L  R207
 L  R208
 G  R209
 L  R210
 L  R211
 G  R212
 L  R213
 L  R214
 G  R215
 L  R216
 L  R217
 G  R218
 L  R219
 L  R220
 G  R221
 L  R222
 L  R223
 G  R224
 L  R225
 L  R226
 G  R227
 L  R228
 L  R229
 G  R230
 L  R231
 L  R232
 G  R233
 L  R234
 L  R235
 G  R236
 L  R237
 L  R238
 G  R239
 L  R240
 L  R241
 G  R242
 L  R243
 L  R244
 G  R245
 L  R246
 L  R247
 G  R248
 L  R249
 L  R250
 G  R251
 L  R252
 L  R253
 G  R254
 L  R255
 L  R256
 G  R257
 L  R258
 L  R259
 G  R260
 L  R261
 L  R262
 G  R263
 L  R264
 L  R265
 G  R266
 L  R267
 L  R268
 G  R269
 L  R270
 L  R271
 G  R272
 L  R273
 L  R274
 G  R275
 L  R276
 L  R277
 G  R278
 L  R279
 L  R280
 G  R281
 L  R282
 L  R283
 G  R284
 L  R285
 L  R286
 G  R287
 L  R288
 L  R289
 G  R290
 L  R291
 L  R292
 G  R293
 L  R294
 L  R295
 G  R296
 L  R297
 L  R298
 G  R299
 L  R300
 L  R301
 G  R302
 L  R303
 L  R304
 G  R305
 L  R306
 L  R307
 G  R308
 L  R309
 L  R310
 G  R311
 L  R312
 L  R313
 G  R314
 L  R315
 L  R316
 G  R317
 L  R318
 L  R319
 G  R320
 L  R321
 L  R322
 G  R323
 L  R324
 L  R325
 G  R326
 L  R327
 L  R328
 G  R329
 L  R330
 L  R331
 G  R332
 L  R333
 L  R334
 G  R335
 L  R336
 L  R337
 G  R338
 L  R339
 L  R340
 G  R341
 L  R342
 L  R343
 G  R344
 L  R345
 L  R346
 G  R347
 L  R348
 L  R349
 G  R350
 L  R351
 L  R352
 G  R353
 L  R354
 L  R355
 G  R356
 L  R357
 L  R358
 G  R359
 L  R360
 L  R361
 G  R362
 L  R363
 L  R364
 G  R365
 L  R366
 L  R367
 G  R368
 L  R369
 L  R370
 G  R371
 L  R372
 L  R373
 G  R374
 L  R375
 L  R376
 G  R377
 L  R378
 L  R379
 G  R380
 L  R381
 L  R382
 G  R383
 L  R384
 L  R385
 G  R386
 L  R387
 L  R388
 G  R389
 L  R390
 L  R391
 G  R392
 L  R393
 L  R394
 G  R395
 L  R396
 L  R397
 G  R398
 L  R399
 L  R400
 G  R401
 L  R402
 L  R403
 G  R404
 L  R405
 L  R406
 G  R407
 L  R408
 L  R409
 G  R410
 L  R411
 L  R412
 G  R413
 L  R414
 L  R415
 G  R416
 L  R417
 L  R418
 G  R419
 L  R420
 L  R421
 G  R422
 L  R423
 L  R424
 G  R425
 L  R426
 L  R427
 G  R428
 L  R429
 L  R430
 G  R431
 L  R432
 L  R433
 G  R434
 L  R435
 L  R436
 G  R437
 L  R438
 L  R439
 G  R440
 L  R441
 L  R442
 G  R443
 L  R444
 L  R445
 G  R446
 L  R447
 L  R448
 G  R449
 L  R450
 L  R451
 G  R452
 L  R453
 L  R454
 G  R455
 L  R456
 L  R457
 G  R458
 L  R459
 L  R460
 G  R461
 L  R462
 L  R463
 E  R464
 E  R465
 L  R466
COLUMNS
    X0  COST  0
    X0  R0  -0.512427508831024169921875
    X0  R1  0.38756215572357177734375
    X0  R2  -0.0046223471872508525848388671875
    X0  R3  0.42630708217620849609375
    X0  R4  -0.5237872600555419921875
    X0  R5  -0.748320281505584716796875
    X0  R6  0.37951791286468505859375
    X0  R7  -0.73866498470306396484375
    X0  R8  -0.727950394153594970703125
    X0  R9  0.523485481739044189453125
    X0  R10  0.06263148784637451171875
    X0  R11  -0.3869160115718841552734375
    X0  R12  0.105309270322322845458984375
    X0  R13  0.0789096057415008544921875
    X0  R14  -0.4365341663360595703125
    X0  R15  -0.0069396980106830596923828125
    X0  R16  -0.24846439063549041748046875
    X0  R17  0.3819830119609832763671875
    X0  R18  0.103039182722568511962890625
    X0  R19  0.4581451416015625
    X0  R20  -0.4704155027866363525390625
    X0  R21  0.52430045604705810546875
    X0  R22  -0.4638057053089141845703125
    X0  R23  0.50805437564849853515625
    X0  R24  -0.14701448380947113037109375
    X0  R25  -0.3828433454036712646484375
    X0  R26  0.3979856967926025390625
    X0  R27  -0.620775282382965087890625
    X0  R28  -0.3279683887958526611328125
    X0  R29  -0.2547226250171661376953125
    X0  R30  0.2676217257976531982421875
    X0  R31  -0.34569263458251953125
    X0  R32  0.23233284056186676025390625
    X0  R33  0.358417212963104248046875
    X0  R34  -0.7564857006072998046875
    X0  R35  -0.18749497830867767333984375
    X0  R36  -0.16315305233001708984375
    X0  R37  0.468743026256561279296875
    X0  R38  -0.04080523550510406494140625
    X0  R39  0.0519577302038669586181640625
    X0  R40  -0.14737235009670257568359375
    X0  R41  0.42523634433746337890625
    X0  R42  -0.56889832019805908203125
    X0  R43  -0.493070542812347412109375
    X0  R44  -0.12220023572444915771484375
    X0  R45  0.4431039988994598388671875
    X0  R46  0.4913909137248992919921875
    X0  R47  -0.0042398511432111263275146484375
    X0  R48  0.500280439853668212890625
    X0  R49  0.22731415927410125732421875
    X0  R50  0.130541026592254638671875
    X0  R51  0.061453111469745635986328125
    X0  R52  0.440992653369903564453125
    X0  R53  -0.647216856479644775390625
    X0  R54  -0.3423607349395751953125
    X0  R55  0.15235002338886260986328125
    X0  R56  0.1676905155181884765625
    X0  R57  0.2885200679302215576171875
    X0  R58  -0.626779019832611083984375
    X0  R59  -0.02291430532932281494140625
    X0  R60  0.485990703105926513671875
    X0  R61  0.43552839756011962890625
    X0  R62  -0.70696353912353515625
    X0  R63  0.51599681377410888671875
    X0  R64  -0.50655591487884521484375
    X0  R65  -0.100272811949253082275390625
    X0  R66  -0.3994596898555755615234375
    X0  R67  -0.735535085201263427734375
    X0  R68  -0.57395565509796142578125
    X0  R69  -0.071685753762722015380859375
    X0  R70  0.4743359088897705078125
    X0  R71  0.4807219207286834716796875
    X0  R72  0.3253454267978668212890625
    X0  R73  0.21185867488384246826171875
    X0  R74  -0.521460354328155517578125
    X0  R75  -0.6724693775177001953125
    X0  R76  0.23392634093761444091796875
    X0  R77  0.2682724893093109130859375
    X0  R78  0.413261234760284423828125
    X0  R79  -0.4296151697635650634765625
    X0  R80  0.346514165401458740234375
    X0  R81  0.4348075687885284423828125
    X0  R82  0.21363545954227447509765625
    X0  R83  -0.7281367778778076171875
    X0  R84  -0.70411217212677001953125
    X0  R85  0.1776553094387054443359375
    X0  R86  0.383665502071380615234375
    X0  R87  0.014749172143638134002685546875
    X0  R88  -0.483960568904876708984375
    X0  R89  0.24236071109771728515625
    X0  R90  0.2976662814617156982421875
    X0  R91  0.39044034481048583984375
    X0  R92  0.2146770656108856201171875
    X0  R93  0.43414056301116943359375
    X0  R94  0.08889473974704742431640625
    X0  R95  0.2872855663299560546875
    X0  R96  0.3310395181179046630859375
    X0  R97  -0.739454805850982666015625
    X0  R98  0.13102282583713531494140625
    X0  R99  0.2706324756145477294921875
    X0  R100  0.465684354305267333984375
    X0  R101  -0.50870597362518310546875
    X0  R102  -0.4671372473239898681640625
    X0  R103  -0.466933190822601318359375
    X0  R104  0.514078438282012939453125
    X0  R105  0.10701777040958404541015625
    X0  R106  0.104009799659252166748046875
    X0  R107  0.0038019162602722644805908203125
    X0  R108  0.4771710336208343505859375
    X0  R109  -0.574363887310028076171875
    X0  R110  0.10706956684589385986328125
    X0  R111  0.347855865955352783203125
    X0  R112  0.470116436481475830078125
    X0  R113  -0.476460993289947509765625
    X0  R114  -0.104465462267398834228515625
    X0  R115  0.1072914302349090576171875
    X0  R116  -0.808030307292938232421875
    X0  R117  0.129519879817962646484375
    X0  R118  -0.0236226879060268402099609375
    X0  R119  -0.501279771327972412109375
    X0  R120  -0.4840128719806671142578125
    X0  R121  -0.617002785205841064453125
    X0  R122  0.4448573887348175048828125
    X0  R123  -0.1277486383914947509765625
    X0  R124  0.014541235752403736114501953125
    X0  R125  0.433783590793609619140625
    X0  R126  0.2931689321994781494140625
    X0  R127  0.4030544459819793701171875
    X1  COST  0
    X1  R0  0.20085759460926055908203125
    X1  R1  -0.3786226212978363037109375
    X1  R2  -0.013608158566057682037353515625
    X1  R3  -0.155640125274658203125
    X1  R4  0.152048051357269287109375
    X1  R5  0.31918299198150634765625
    X1  R6  0.064242698252201080322265625
    X1  R7  0.364887058734893798828125
    X1  R8  0.2775628864765167236328125
    X1  R9  0.0549400709569454193115234375
    X1  R10  0.22829328477382659912109375
    X1  R11  0.1433327496051788330078125
    X1  R12  -0.4752064049243927001953125
    X1  R13  -0.3594149053096771240234375
    X1  R14  0.0270054899156093597412109375
    X1  R15  -0.015497134067118167877197265625
    X1  R16  0.279336273670196533203125
    X1  R17  -0.07892946898937225341796875
    X1  R18  -0.40943086147308349609375
    X1  R19  -0.013026480562984943389892578125
    X1  R20  0.260699212551116943359375
    X1  R21  -0.1200133860111236572265625
    X1  R22  0.107111088931560516357421875
    X1  R23  0.4634532630443572998046875
    X1  R24  -0.011069742031395435333251953125
    X1  R25  0.0443895347416400909423828125
    X1  R26  0.113765813410282135009765625
    X1  R27  0.36881339550018310546875
    X1  R28  0.1295808851718902587890625
    X1  R29  0.3722709119319915771484375
    X1  R30  0.086798943579196929931640625
    X1  R31  0.177467286586761474609375
    X1  R32  -0.4468164741992950439453125
    X1  R33  0.1134140193462371826171875
    X1  R34  0.2823945581912994384765625
    X1  R35  0.01399930007755756378173828125
    X1  R36  0.13607306778430938720703125
    X1  R37  0.14617525041103363037109375
    X1  R38  -0.32094562053680419921875
    X1  R39  0.102176301181316375732421875
    X1  R40  0.17527948319911956787109375
    X1  R41  0.11257191002368927001953125
    X1  R42  0.3839504718780517578125
    X1  R43  0.2013092041015625
    X1  R44  0.06013213098049163818359375
    X1  R45  -0.15258868038654327392578125
    X1  R46  0.50965058803558349609375
    X1  R47  0.07205460965633392333984375
    X1  R48  -0.1989336907863616943359375
    X1  R49  0.11232696473598480224609375
    X1  R50  -0.312960147857666015625
    X1  R51  -0.15347422659397125244140625
    X1  R52  -0.35207784175872802734375
    X1  R53  0.17261302471160888671875
    X1  R54  0.3209896385669708251953125
    X1  R55  -0.1997352540493011474609375
    X1  R56  -0.320811450481414794921875
    X1  R57  0.17786552011966705322265625
    X1  R58  0.487001895904541015625
    X1  R59  0.16575624048709869384765625
    X1  R60  0.0585660301148891448974609375
    X1  R61  -0.3024478256702423095703125
    X1  R62  0.3306742012500762939453125
    X1  R63  0.371853172779083251953125
    X1  R64  0.092341981828212738037109375
    X1  R65  0.0529969967901706695556640625
    X1  R66  0.1716274321079254150390625
    X1  R67  0.2677409648895263671875
    X1  R68  0.21160559356212615966796875
    X1  R69  -0.091459043323993682861328125
    X1  R70  -0.079376555979251861572265625
    X1  R71  -0.260802805423736572265625
    X1  R72  -0.4748286306858062744140625
    X1  R73  0.19911287724971771240234375
    X1  R74  0.16735409200191497802734375
    X1  R75  0.2299838364124298095703125
    X1  R76  0.08106525242328643798828125
    X1  R77  -0.4078510701656341552734375
    X1  R78  0.284243762493133544921875
    X1  R79  0.0807353556156158447265625
    X1  R80  0.3076013624668121337890625
    X1  R81  0.3009226024150848388671875
    X1  R82  -0.25149631500244140625
    X1  R83  0.19924743473529815673828125
    X1  R84  0.363282740116119384765625
    X1  R85  0.3652850687503814697265625
    X1  R86  0.3572528064250946044921875
    X1  R87  -0.3640806376934051513671875
    X1  R88  0.067711226642131805419921875
    X1  R89  0.1821583807468414306640625
    X1  R90  0.322577536106109619140625
    X1  R91  0.14355851709842681884765625
    X1  R92  0.554202854633331298828125
    X1  R93  0.064958386123180389404296875
    X1  R94  -0.072146035730838775634765625
    X1  R95  -0.2388335168361663818359375
    X1  R96  -0.1021147072315216064453125
    X1  R97  0.3202996551990509033203125
    X1  R98  -0.51668703556060791015625
    X1  R99  0.08593638241291046142578125
    X1  R100  -0.18522365391254425048828125
    X1  R101  0.102651871740818023681640625
    X1  R102  0.20672087371349334716796875
    X1  R103  0.4433762729167938232421875
    X1  R104  0.23414099216461181640625
    X1  R105  -0.106797419488430023193359375
    X1  R106  -0.47801411151885986328125
    X1  R107  -0.01809439994394779205322265625
    X1  R108  -0.16217400133609771728515625
    X1  R109  0.1408611834049224853515625
    X1  R110  0.3226220607757568359375
    X1  R111  -0.37731850147247314453125
    X1  R112  -0.33500063419342041015625
    X1  R113  0.1846648156642913818359375
    X1  R114  -0.3994133472442626953125
    X1  R115  -0.634485185146331787109375
    X1  R116  0.3580236136913299560546875
    X1  R117  -0.4838000237941741943359375
    X1  R118  -0.3106334507465362548828125
    X1  R119  0.11614477634429931640625
    X1  R120  0.0771120488643646240234375
    X1  R121  0.3106937706470489501953125
    X1  R122  -0.161628544330596923828125
    X1  R123  0.07945834100246429443359375
    X1  R124  -0.1875626742839813232421875
    X1  R125  0.117490284144878387451171875
    X1  R126  -0.363837420940399169921875
    X1  R127  -0.11054651439189910888671875
    X2  COST  0
    X2  R0  -0.116827785968780517578125
    X2  R1  -0.07567872107028961181640625
    X2  R2  -0.14592428505420684814453125
    X2  R3  0.2274999916553497314453125
    X2  R4  -0.12766523659229278564453125
    X2  R5  -0.383887827396392822265625
    X2  R6  -0.058013506233692169189453125
    X2  R7  -0.04032184183597564697265625
    X2  R8  -0.238283812999725341796875
    X2  R9  -0.2275900542736053466796875
    X2  R10  -0.2798049449920654296875
    X2  R11  -0.3356696665287017822265625
    X2  R12  0.03676034510135650634765625
    X2  R13  -0.2650207579135894775390625
    X2  R14  0.49732792377471923828125
    X2  R15  0.189359128475189208984375
    X2  R16  -0.24899993836879730224609375
    X2  R17  0.0271717794239521026611328125
    X2  R18  0.2926140725612640380859375
    X2  R19  -0.17848418653011322021484375
    X2  R20  -0.183499813079833984375
    X2  R21  0.014686626382172107696533203125
    X2  R22  0.2864851653575897216796875
    X2  R23  0.08311887085437774658203125
    X2  R24  0.36975538730621337890625
    X2  R25  0.3424386084079742431640625
    X2  R26  -0.5014226436614990234375
    X2  R27  -0.3225158751010894775390625
    X2  R28  0.20459401607513427734375
    X2  R29  -0.3701380193233489990234375
    X2  R30  0.042843878269195556640625
    X2  R31  -0.069879718124866485595703125
    X2  R32  0.023953028023242950439453125
    X2  R33  0.1632871329784393310546875
    X2  R34  -0.4092722237110137939453125
    X2  R35  0.3805266916751861572265625
    X2  R36  -0.10365583002567291259765625
    X2  R37  0.179370224475860595703125
    X2  R38  -0.4690813124179840087890625
    X2  R39  -0.21533007919788360595703125
    X2  R40  0.091334640979766845703125
    X2  R41  -0.192582070827484130859375
    X2  R42  -0.4291963875293731689453125
    X2  R43  -0.020093955099582672119140625
    X2  R44  -0.4804807603359222412109375
    X2  R45  -0.4175255298614501953125
    X2  R46  0.0591953583061695098876953125
    X2  R47  -0.3854032456874847412109375
    X2  R48  -0.3395916521549224853515625
    X2  R49  0.22648738324642181396484375
    X2  R50  0.0460164360702037811279296875
    X2  R51  0.0517026484012603759765625
    X2  R52  -0.124961026012897491455078125
    X2  R53  0.2849254608154296875
    X2  R54  0.16946995258331298828125
    X2  R55  0.4779439270496368408203125
    X2  R56  0.2589907348155975341796875
    X2  R57  -0.2709274590015411376953125
    X2  R58  -0.672007083892822265625
    X2  R59  -0.186123907566070556640625
    X2  R60  -0.3787603676319122314453125
    X2  R61  0.124045468866825103759765625
    X2  R62  -0.302633225917816162109375
    X2  R63  -0.07918693125247955322265625
    X2  R64  0.382010042667388916015625
    X2  R65  -0.271153032779693603515625
    X2  R66  -0.1454532444477081298828125
    X2  R67  0.07294808328151702880859375
    X2  R68  0.08578605949878692626953125
    X2  R69  -0.0072608920745551586151123046875
    X2  R70  -0.2403872907161712646484375
    X2  R71  0.107054330408573150634765625
    X2  R72  -0.0432352907955646514892578125
    X2  R73  -0.3411566913127899169921875
    X2  R74  -0.0458901040256023406982421875
    X2  R75  -0.17918594181537628173828125
    X2  R76  -0.1487981975078582763671875
    X2  R77  -0.13052476942539215087890625
    X2  R78  -0.17324100434780120849609375
    X2  R79  0.288686215877532958984375
    X2  R80  -0.4644720852375030517578125
    X2  R81  -0.0456815175712108612060546875
    X2  R82  -0.1896619498729705810546875
    X2  R83  0.07167552411556243896484375
    X2  R84  -0.4407764375209808349609375
    X2  R85  -0.229766070842742919921875
    X2  R86  0.10383661091327667236328125
    X2  R87  0.151949584484100341796875
    X2  R88  0.34956109523773193359375
    X2  R89  0.00147341634146869182586669921875
    X2  R90  0.0622485689818859100341796875
    X2  R91  0.16400025784969329833984375
    X2  R92  0.269574105739593505859375
    X2  R93  0.0244936160743236541748046875
    X2  R94  -0.18685980141162872314453125
    X2  R95  -0.0343156196177005767822265625
    X2  R96  -0.169468581676483154296875
    X2  R97  -0.270426571369171142578125
    X2  R98  0.17048595845699310302734375
    X2  R99  -0.0721450746059417724609375
    X2  R100  -0.20917133986949920654296875
    X2  R101  0.184930622577667236328125
    X2  R102  0.062855385243892669677734375
    X2  R103  -0.4453147947788238525390625
    X2  R104  0.22645743191242218017578125
    X2  R105  0.043262995779514312744140625
    X2  R106  -0.029672153294086456298828125
    X2  R107  0.359743893146514892578125
    X2  R108  -0.2564433515071868896484375
    X2  R109  0.112481258809566497802734375
    X2  R110  -0.094811327755451202392578125
    X2  R111  -0.14076997339725494384765625
    X2  R112  0.01917470805346965789794921875
    X2  R113  0.17455576360225677490234375
    X2  R114  0.097288191318511962890625
    X2  R115  -0.278167247772216796875
    X2  R116  -0.418584048748016357421875
    X2  R117  -0.4719374477863311767578125
    X2  R118  -0.3047942817211151123046875
    X2  R119  -0.17765486240386962890625
    X2  R120  0.28892266750335693359375
    X2  R121  -0.063123382627964019775390625
    X2  R122  -0.09013380110263824462890625
    X2  R123  0.27370226383209228515625
    X2  R124  -0.3455925285816192626953125
    X2  R125  -0.13000829517841339111328125
    X2  R126  -0.21156860888004302978515625
    X2  R127  -0.127393424510955810546875
    X3  COST  0
    X3  R0  0.209590852260589599609375
    X3  R1  -0.11603511869907379150390625
    X3  R2  0.484070837497711181640625
    X3  R3  0.3060431182384490966796875
    X3  R4  0.109790079295635223388671875
    X3  R5  0.518217563629150390625
    X3  R6  -0.08917666971683502197265625
    X3  R7  0.29354095458984375
    X3  R8  0.2298262417316436767578125
    X3  R9  -0.035975240170955657958984375
    X3  R10  0.37013804912567138671875
    X3  R11  0.090768910944461822509765625
    X3  R12  0.2768960297107696533203125
    X3  R13  -0.118922032415866851806640625
    X3  R14  -0.268722355365753173828125
    X3  R15  -0.14713470637798309326171875
    X3  R16  0.309235513210296630859375
    X3  R17  -0.04797481000423431396484375
    X3  R18  0.313792705535888671875
    X3  R19  -0.0426254756748676300048828125
    X3  R20  0.3311376273632049560546875
    X3  R21  0.06425298750400543212890625
    X3  R22  -0.1119554936885833740234375
    X3  R23  0.11769871413707733154296875
    X3  R24  -0.1549322307109832763671875
    X3  R25  0.035912193357944488525390625
    X3  R26  -0.211378157138824462890625
    X3  R27  0.356155097484588623046875
    X3  R28  -0.124950163066387176513671875
    X3  R29  0.434427440166473388671875
    X3  R30  -0.112477116286754608154296875
    X3  R31  0.0561079718172550201416015625
    X3  R32  -0.0731526911258697509765625
    X3  R33  0.40444242954254150390625
    X3  R34  0.22967721521854400634765625
    X3  R35  -0.1914949119091033935546875
    X3  R36  0.31813347339630126953125
    X3  R37  0.3223954141139984130859375
    X3  R38  -0.423613250255584716796875
    X3  R39  0.17117659747600555419921875
    X3  R40  0.20359556376934051513671875
    X3  R41  -0.0619450509548187255859375
    X3  R42  0.496906340122222900390625
    X3  R43  0.103242397308349609375
    X3  R44  0.3548805415630340576171875
    X3  R45  -0.1888279616832733154296875
    X3  R46  0.124471448361873626708984375
    X3  R47  0.23951594531536102294921875
    X3  R48  -0.2148516178131103515625
    X3  R49  0.61898291110992431640625
    X3  R50  -0.0328984521329402923583984375
    X3  R51  -0.08700911700725555419921875
    X3  R52  -0.001822592574171721935272216796875
    X3  R53  -0.1382478177547454833984375
    X3  R54  0.08728601038455963134765625
    X3  R55  -0.409363687038421630859375
    X3  R56  0.344495832920074462890625
    X3  R57  -0.2623558938503265380859375
    X3  R58  0.724651336669921875
    X3  R59  0.087076149880886077880859375
    X3  R60  -0.2492706775665283203125
    X3  R61  0.2074472606182098388671875
    X3  R62  0.3885046541690826416015625
    X3  R63  0.094166018068790435791015625
    X3  R64  -0.101220764219760894775390625
    X3  R65  0.13421605527400970458984375
    X3  R66  -0.08454962074756622314453125
    X3  R67  0.1268971860408782958984375
    X3  R68  0.1396706998348236083984375
    X3  R69  0.194611966609954833984375
    X3  R70  -0.1976481974124908447265625
    X3  R71  0.302313745021820068359375
    X3  R72  0.089361615478992462158203125
    X3  R73  -0.17647708952426910400390625
    X3  R74  0.251217663288116455078125
    X3  R75  0.3467080593109130859375
    X3  R76  -0.085851781070232391357421875
    X3  R77  0.13008911907672882080078125
    X3  R78  -0.012757332064211368560791015625
    X3  R79  -0.3308837413787841796875
    X3  R80  -0.276649951934814453125
    X3  R81  -0.42903673648834228515625
    X3  R82  -0.16622762382030487060546875
    X3  R83  0.08298180997371673583984375
    X3  R84  0.4526106417179107666015625
    X3  R85  -0.23897404968738555908203125
    X3  R86  0.0421986915171146392822265625
    X3  R87  0.555202484130859375
    X3  R88  -0.260584294795989990234375
    X3  R89  -0.2488110959529876708984375
    X3  R90  -0.21316947042942047119140625
    X3  R91  0.22328527271747589111328125
    X3  R92  0.4996899664402008056640625
    X3  R93  0.14847750961780548095703125
    X3  R94  0.09942261874675750732421875
    X3  R95  0.2089709341526031494140625
    X3  R96  -0.3275814950466156005859375
    X3  R97  0.368284702301025390625
    X3  R98  0.25540828704833984375
    X3  R99  -0.090764202177524566650390625
    X3  R100  -0.2137018740177154541015625
    X3  R101  0.17548947036266326904296875
    X3  R102  0.072700507938861846923828125
    X3  R103  0.4432646334171295166015625
    X3  R104  0.3088610172271728515625
    X3  R105  -0.2941367328166961669921875
    X3  R106  0.2320654690265655517578125
    X3  R107  0.1571068465709686279296875
    X3  R108  -0.1237529814243316650390625
    X3  R109  0.059495031833648681640625
    X3  R110  -0.10076497495174407958984375
    X3  R111  -0.121759511530399322509765625
    X3  R112  0.13203395903110504150390625
    X3  R113  0.2092546522617340087890625
    X3  R114  -0.14465773105621337890625
    X3  R115  -0.29771745204925537109375
    X3  R116  0.13247029483318328857421875
    X3  R117  -0.14663554728031158447265625
    X3  R118  -0.3994552195072174072265625
    X3  R119  0.0623964034020900726318359375
    X3  R120  -0.14797629415988922119140625
    X3  R121  0.16670311987400054931640625
    X3  R122  -0.124537892639636993408203125
    X3  R123  0.17383332550525665283203125
    X3  R124  -0.2697479426860809326171875
    X3  R125  -0.0006788850878365337848663330078125
    X3  R126  0.0416905097663402557373046875
    X3  R127  -0.14088810980319976806640625
    X4  COST  0
    X4  R0  0.14243732392787933349609375
    X4  R1  -0.0418210141360759735107421875
    X4  R2  0.3145014345645904541015625
    X4  R3  -0.112989313900470733642578125
    X4  R4  0.4009340703487396240234375
    X4  R5  0.302094042301177978515625
    X4  R6  0.2133788764476776123046875
    X4  R7  0.326541423797607421875
    X4  R8  0.312747657299041748046875
    X4  R9  -0.07315917313098907470703125
    X4  R10  0.14766512811183929443359375
    X4  R11  0.05666606128215789794921875
    X4  R12  -0.097613103687763214111328125
    X4  R13  -0.3088094294071197509765625
    X4  R14  0.546716272830963134765625
    X4  R15  -0.18977431952953338623046875
    X4  R16  -0.073833979666233062744140625
    X4  R17  0.22193454205989837646484375
    X4  R18  0.1622421443462371826171875
    X4  R19  -0.0351710803806781768798828125
    X4  R20  0.18080006539821624755859375
    X4  R21  -0.06358635425567626953125
    X4  R22  -0.118012271821498870849609375
    X4  R23  -0.0976085364818572998046875
    X4  R24  -0.2201600968837738037109375
    X4  R25  -0.1003234088420867919921875
    X4  R26  -0.064315043389797210693359375
    X4  R27  0.17472656071186065673828125
    X4  R28  0.18039472401142120361328125
    X4  R29  -0.2005754411220550537109375
    X4  R30  -0.081554047763347625732421875
    X4  R31  -0.21883876621723175048828125
    X4  R32  0.133745610713958740234375
    X4  R33  -0.2941582202911376953125
    X4  R34  0.2731691896915435791015625
    X4  R35  0.1142650544643402099609375
    X4  R36  0.2905170917510986328125
    X4  R37  -0.3507690131664276123046875
    X4  R38  0.49288880825042724609375
    X4  R39  -0.265066683292388916015625
    X4  R40  -0.307294070720672607421875
    X4  R41  -0.09192262589931488037109375
    X4  R42  0.00849461369216442108154296875
    X4  R43  -0.04973827302455902099609375
    X4  R44  0.201299190521240234375
    X4  R45  0.0189708732068538665771484375
    X4  R46  0.24577249586582183837890625
    X4  R47  0.2696813046932220458984375
    X4  R48  -0.11459310352802276611328125
    X4  R49  -0.52581691741943359375
    X4  R50  -0.25512564182281494140625
    X4  R51  0.4086715281009674072265625
    X4  R52  -0.10881440341472625732421875
    X4  R53  -0.050945095717906951904296875
    X4  R54  -0.0711985528469085693359375
    X4  R55  0.50232565402984619140625
    X4  R56  0.0568426959216594696044921875
    X4  R57  0.2540331184864044189453125
    X4  R58  0.0164871923625469207763671875
    X4  R59  -0.02078259922564029693603515625
    X4  R60  -0.109099902212619781494140625
    X4  R61  -0.2434946596622467041015625
    X4  R62  0.085596859455108642578125
    X4  R63  0.2277400493621826171875
    X4  R64  -0.087276987731456756591796875
    X4  R65  0.0874269902706146240234375
    X4  R66  0.02650752849876880645751953125
    X4  R67  0.4021908938884735107421875
    X4  R68  0.1326878964900970458984375
    X4  R69  -0.1554143726825714111328125
    X4  R70  0.08845238387584686279296875
    X4  R71  -0.20099367201328277587890625
    X4  R72  -0.0819002091884613037109375
    X4  R73  -0.08052623271942138671875
    X4  R74  0.19069282710552215576171875
    X4  R75  0.4570485651493072509765625
    X4  R76  0.2922560274600982666015625
    X4  R77  0.2299698293209075927734375
    X4  R78  -0.08356375992298126220703125
    X4  R79  0.196015834808349609375
    X4  R80  0.1622163951396942138671875
    X4  R81  -0.049507506191730499267578125
    X4  R82  0.2862792313098907470703125
    X4  R83  0.1379419267177581787109375
    X4  R84  0.081885881721973419189453125
    X4  R85  0.239362537860870361328125
    X4  R86  -0.026667155325412750244140625
    X4  R87  -0.153706252574920654296875
    X4  R88  0.20272104442119598388671875
    X4  R89  0.040899313986301422119140625
    X4  R90  -0.1509316861629486083984375
    X4  R91  -0.146208465099334716796875
    X4  R92  -0.3532974421977996826171875
    X4  R93  0.01343500800430774688720703125
    X4  R94  -0.02841067500412464141845703125
    X4  R95  0.2237413227558135986328125
    X4  R96  -0.0393171198666095733642578125
    X4  R97  0.169582545757293701171875
    X4  R98  0.102136470377445220947265625
    X4  R99  -0.286172926425933837890625
    X4  R100  -0.080237366259098052978515625
    X4  R101  0.20546172559261322021484375
    X4  R102  0.16737194359302520751953125
    X4  R103  0.2921617925167083740234375
    X4  R104  -0.36042582988739013671875
    X4  R105  -0.0158284641802310943603515625
    X4  R106  -0.0542975701391696929931640625
    X4  R107  -0.071154050529003143310546875
    X4  R108  0.16545124351978302001953125
    X4  R109  -0.08539779484272003173828125
    X4  R110  0.03264294564723968505859375
    X4  R111  0.21761333942413330078125
    X4  R112  -0.247871339321136474609375
    X4  R113  0.21552310883998870849609375
    X4  R114  -0.13168869912624359130859375
    X4  R115  -0.0599872767925262451171875
    X4  R116  0.066881142556667327880859375
    X4  R117  -0.2009218037128448486328125
    X4  R118  -0.3839467465877532958984375
    X4  R119  -0.032823525369167327880859375
    X4  R120  0.062163770198822021484375
    X4  R121  0.13192786276340484619140625
    X4  R122  -0.0115604810416698455810546875
    X4  R123  0.351085186004638671875
    X4  R124  0.02306196279823780059814453125
    X4  R125  -0.068833403289318084716796875
    X4  R126  -0.1751694977283477783203125
    X4  R127  -0.13413135707378387451171875
    X5  COST  0
    X5  R0  0.044647403061389923095703125
    X5  R1  -0.00103415013290941715240478515625
    X5  R2  -0.1080662906169891357421875
    X5  R3  -0.2803933322429656982421875
    X5  R4  0.10341800749301910400390625
    X5  R5  0.077846586704254150390625
    X5  R6  -0.4622285664081573486328125
    X5  R7  0.075348369777202606201171875
    X5  R8  0.03921043872833251953125
    X5  R9  0.0584399886429309844970703125
    X5  R10  -0.0034831096418201923370361328125
    X5  R11  -0.00373089662753045558929443359375
    X5  R12  -0.0480599142611026763916015625
    X5  R13  -0.22310574352741241455078125
    X5  R14  -0.080570541322231292724609375
    X5  R15  0.09275852143764495849609375
    X5  R16  -0.119113169610500335693359375
    X5  R17  -0.0108179412782192230224609375
    X5  R18  -0.3805678784847259521484375
    X5  R19  0.0531997568905353546142578125
    X5  R20  0.24650602042675018310546875
    X5  R21  0.063260175287723541259765625
    X5  R22  0.028900556266307830810546875
    X5  R23  0.0377365984022617340087890625
    X5  R24  0.071883164346218109130859375
    X5  R25  0.079691193997859954833984375
    X5  R26  -0.0854861736297607421875
    X5  R27  0.02325481362640857696533203125
    X5  R28  0.004363529384136199951171875
    X5  R29  -0.07091294229030609130859375
    X5  R30  -0.0375649221241474151611328125
    X5  R31  -0.18658579885959625244140625
    X5  R32  -0.13057295978069305419921875
    X5  R33  -0.127824604511260986328125
    X5  R34  0.10237140953540802001953125
    X5  R35  -0.0559200234711170196533203125
    X5  R36  0.20074643194675445556640625
    X5  R37  0.08260922133922576904296875
    X5  R38  0.132873833179473876953125
    X5  R39  -0.1042437255382537841796875
    X5  R40  -0.119404472410678863525390625
    X5  R41  -0.16560874879360198974609375
    X5  R42  0.01594002731144428253173828125
    X5  R43  0.12775902450084686279296875
    X5  R44  0.13052867352962493896484375
    X5  R45  -0.2744931876659393310546875
    X5  R46  0.27728617191314697265625
    X5  R47  -0.142922461032867431640625
    X5  R48  -0.11677409708499908447265625
    X5  R49  0.268791019916534423828125
    X5  R50  0.43175923824310302734375
    X5  R51  -0.22138118743896484375
    X5  R52  -0.285688877105712890625
    X5  R53  -0.04772530496120452880859375
    X5  R54  0.079725898802280426025390625
    X5  R55  0.3592582046985626220703125
    X5  R56  -0.478208482265472412109375
    X5  R57  -0.0455846302211284637451171875
    X5  R58  -0.017493389546871185302734375
    X5  R59  -0.2841438949108123779296875
    X5  R60  -0.0415658690035343170166015625
    X5  R61  0.0387091599404811859130859375
    X5  R62  0.0796058177947998046875
    X5  R63  0.074205555021762847900390625
    X5  R64  -0.11644272506237030029296875
    X5  R65  0.08625181019306182861328125
    X5  R66  0.049208275973796844482421875
    X5  R67  0.14096023142337799072265625
    X5  R68  -0.00619615055620670318603515625
    X5  R69  -0.22158871591091156005859375
    X5  R70  -0.20616327226161956787109375
    X5  R71  -0.4003003537654876708984375
    X5  R72  0.12122593820095062255859375
    X5  R73  0.2994020283222198486328125
    X5  R74  -0.0814366638660430908203125
    X5  R75  0.3098634183406829833984375
    X5  R76  -0.00793117471039295196533203125
    X5  R77  0.164972364902496337890625
    X5  R78  0.2389267385005950927734375
    X5  R79  0.185100495815277099609375
    X5  R80  -0.3033113777637481689453125
    X5  R81  -0.13207544386386871337890625
    X5  R82  -0.3937018811702728271484375
    X5  R83  0.002514648251235485076904296875
    X5  R84  -0.00214934744872152805328369140625
    X5  R85  0.16131074726581573486328125
    X5  R86  0.235082089900970458984375
    X5  R87  -0.050078399479389190673828125
    X5  R88  0.0285699367523193359375
    X5  R89  -0.294946730136871337890625
    X5  R90  0.108147256076335906982421875
    X5  R91  0.1825261414051055908203125
    X5  R92  0.288618743419647216796875
    X5  R93  -0.29501760005950927734375
    X5  R94  0.103739716112613677978515625
    X5  R95  -0.1765496730804443359375
    X5  R96  0.0491903722286224365234375
    X5  R97  -0.02142190374433994293212890625
    X5  R98  -0.24248468875885009765625
    X5  R99  0.3464923799037933349609375
    X5  R100  -0.154716670513153076171875
    X5  R101  0.098214410245418548583984375
    X5  R102  0.2628611624240875244140625
    X5  R103  0.0376072786748409271240234375
    X5  R104  0.17093537747859954833984375
    X5  R105  0.2310348451137542724609375
    X5  R106  -0.1407183706760406494140625
    X5  R107  -0.1799326241016387939453125
    X5  R108  -0.27355849742889404296875
    X5  R109  0.090598843991756439208984375
    X5  R110  0.3992010653018951416015625
    X5  R111  -0.23211370408535003662109375
    X5  R112  -0.3607002198696136474609375
    X5  R113  -0.11083807051181793212890625
    X5  R114  0.21985022723674774169921875
    X5  R115  0.2565538883209228515625
    X5  R116  0.156471431255340576171875
    X5  R117  0.28904902935028076171875
    X5  R118  0.23247756063938140869140625
    X5  R119  -0.007338811643421649932861328125
    X5  R120  0.2011030614376068115234375
    X5  R121  0.2689397335052490234375
    X5  R122  -0.0367482267320156097412109375
    X5  R123  0.043138585984706878662109375
    X5  R124  0.497868478298187255859375
    X5  R125  -0.19881348311901092529296875
    X5  R126  -0.20256583392620086669921875
    X5  R127  0.027070306241512298583984375
    X6  COST  0
    X6  R0  0.0412683784961700439453125
    X6  R1  -0.01980719156563282012939453125
    X6  R2  -0.0613431222736835479736328125
    X6  R3  0.281254827976226806640625
    X6  R4  0.2841981947422027587890625
    X6  R5  -0.2244898378849029541015625
    X6  R6  -0.14002217352390289306640625
    X6  R7  0.0518056936562061309814453125
    X6  R8  -0.16960607469081878662109375
    X6  R9  0.222688257694244384765625
    X6  R10  -0.299843311309814453125
    X6  R11  -0.18022692203521728515625
    X6  R12  0.3736402690410614013671875
    X6  R13  0.3778577148914337158203125
    X6  R14  0.18385748565196990966796875
    X6  R15  -0.290728986263275146484375
    X6  R16  -0.1693473756313323974609375
    X6  R17  0.2650015354156494140625
    X6  R18  0.1418121755123138427734375
    X6  R19  0.112894974648952484130859375
    X6  R20  -0.075200013816356658935546875
    X6  R21  0.053471617400646209716796875
    X6  R22  0.09117095172405242919921875
    X6  R23  0.220284879207611083984375
    X6  R24  -0.008110393770039081573486328125
    X6  R25  -0.0471050776541233062744140625
    X6  R26  0.014862789772450923919677734375
    X6  R27  -0.149012029170989990234375
    X6  R28  0.2758467495441436767578125
    X6  R29  -0.22347651422023773193359375
    X6  R30  -0.19489143788814544677734375
    X6  R31  -0.3622057139873504638671875
    X6  R32  -0.178792417049407958984375
    X6  R33  0.036148332059383392333984375
    X6  R34  -0.0440929643809795379638671875
    X6  R35  0.257941782474517822265625
    X6  R36  0.048492990434169769287109375
    X6  R37  0.18388389050960540771484375
    X6  R38  -0.4960763156414031982421875
    X6  R39  0.35351288318634033203125
    X6  R40  -0.14562118053436279296875
    X6  R41  0.16357229650020599365234375
    X6  R42  -0.25590550899505615234375
    X6  R43  -0.101918302476406097412109375
    X6  R44  -0.082655288279056549072265625
    X6  R45  0.013525924645364284515380859375
    X6  R46  0.12994389235973358154296875
    X6  R47  -0.2579715549945831298828125
    X6  R48  0.1891458034515380859375
    X6  R49  0.142833888530731201171875
    X6  R50  0.10362376272678375244140625
    X6  R51  -0.034695602953433990478515625
    X6  R52  0.116781614720821380615234375
    X6  R53  0.0004494370077736675739288330078125
    X6  R54  0.0652635097503662109375
    X6  R55  0.704191505908966064453125
    X6  R56  -0.02882210910320281982421875
    X6  R57  -0.2731449902057647705078125
    X6  R58  -0.104724727571010589599609375
    X6  R59  -0.20855478942394256591796875
    X6  R60  -0.100666619837284088134765625
    X6  R61  0.06192691624164581298828125
    X6  R62  -0.1310923397541046142578125
    X6  R63  -0.124783851206302642822265625
    X6  R64  0.08777208626270294189453125
    X6  R65  0.020728610455989837646484375
    X6  R66  0.039153568446636199951171875
    X6  R67  0.305904805660247802734375
    X6  R68  -0.24673806130886077880859375
    X6  R69  0.3785677254199981689453125
    X6  R70  -0.00834928639233112335205078125
    X6  R71  0.465947449207305908203125
    X6  R72  -0.227913320064544677734375
    X6  R73  -0.07327969372272491455078125
    X6  R74  -0.2912864983081817626953125
    X6  R75  0.288764297962188720703125
    X6  R76  -0.19427977502346038818359375
    X6  R77  -0.100886821746826171875
    X6  R78  -0.014416982419788837432861328125
    X6  R79  0.52792751789093017578125
    X6  R80  0.3265702426433563232421875
    X6  R81  0.02077978663146495819091796875
    X6  R82  -0.12826602160930633544921875
    X6  R83  -0.0579719282686710357666015625
    X6  R84  -0.23316375911235809326171875
    X6  R85  -0.4171960651874542236328125
    X6  R86  0.347856938838958740234375
    X6  R87  0.29882085323333740234375
    X6  R88  0.142199039459228515625
    X6  R89  -0.2837385237216949462890625
    X6  R90  -0.122760377824306488037109375
    X6  R91  0.16101439297199249267578125
    X6  R92  0.07300961017608642578125
    X6  R93  0.06315399706363677978515625
    X6  R94  0.1292572319507598876953125
    X6  R95  -0.2871678769588470458984375
    X6  R96  0.18282531201839447021484375
    X6  R97  -0.1648997366428375244140625
    X6  R98  -0.20124168694019317626953125
    X6  R99  -0.027683876454830169677734375
    X6  R100  -0.014344091527163982391357421875
    X6  R101  -0.0332121551036834716796875
    X6  R102  0.2548105716705322265625
    X6  R103  0.15799696743488311767578125
    X6  R104  0.1550815403461456298828125
    X6  R105  -0.11036156117916107177734375
    X6  R106  -0.02599956654012203216552734375
    X6  R107  -0.4141411483287811279296875
    X6  R108  0.109803624451160430908203125
    X6  R109  -0.0227687396109104156494140625
    X6  R110  -0.15705077350139617919921875
    X6  R111  0.0493226833641529083251953125
    X6  R112  0.3745351731777191162109375
    X6  R113  -0.1765154898166656494140625
    X6  R114  0.0490105710923671722412109375
    X6  R115  -0.08795668184757232666015625
    X6  R116  0.083453826606273651123046875
    X6  R117  -0.312375724315643310546875
    X6  R118  -0.379018962383270263671875
    X6  R119  -0.0525706745684146881103515625
    X6  R120  0.14892242848873138427734375
    X6  R121  0.1259300410747528076171875
    X6  R122  0.20064640045166015625
    X6  R123  -0.075067453086376190185546875
    X6  R124  -0.24114887416362762451171875
    X6  R125  0.244619190692901611328125
    X6  R126  0.11441229283809661865234375
    X6  R127  0.0446965582668781280517578125
    X7  COST  0
    X7  R0  0.038836658000946044921875
    X7  R1  -0.2534483373165130615234375
    X7  R2  -0.128255784511566162109375
    X7  R3  0.07861356437206268310546875
    X7  R4  -0.0530256517231464385986328125
    X7  R5  0.09035395085811614990234375
    X7  R6  -0.3663717806339263916015625
    X7  R7  -0.0696528851985931396484375
    X7  R8  0.1668995320796966552734375
    X7  R9  0.097073830664157867431640625
    X7  R10  0.17989505827426910400390625
    X7  R11  0.081330142915248870849609375
    X7  R12  0.3154218494892120361328125
    X7  R13  0.4194541275501251220703125
    X7  R14  0.196396648883819580078125
    X7  R15  0.213445246219635009765625
    X7  R16  -0.24916617572307586669921875
    X7  R17  -0.121501795947551727294921875
    X7  R18  -0.146060407161712646484375
    X7  R19  0.088516511023044586181640625
    X7  R20  -0.008019470609724521636962890625
    X7  R21  -0.0569049380719661712646484375
    X7  R22  -0.333816051483154296875
    X7  R23  -0.27621185779571533203125
    X7  R24  -0.14474938809871673583984375
    X7  R25  -0.09821452200412750244140625
    X7  R26  -0.08473263680934906005859375
    X7  R27  -0.038793019950389862060546875
    X7  R28  -0.0404463112354278564453125
    X7  R29  -0.22611249983310699462890625
    X7  R30  -0.22066666185855865478515625
    X7  R31  -0.13170921802520751953125
    X7  R32  -0.2889123857021331787109375
    X7  R33  -0.02455158345401287078857421875
    X7  R34  0.14524464309215545654296875
    X7  R35  -0.1438703835010528564453125
    X7  R36  -0.18175305426120758056640625
    X7  R37  -0.0580488480627536773681640625
    X7  R38  -0.3000129759311676025390625
    X7  R39  0.3857261836528778076171875
    X7  R40  -0.4128262102603912353515625
    X7  R41  0.0309159792959690093994140625
    X7  R42  -0.0619103051722049713134765625
    X7  R43  0.0251958854496479034423828125
    X7  R44  0.20242583751678466796875
    X7  R45  -0.090279288589954376220703125
    X7  R46  0.179968893527984619140625
    X7  R47  0.17555558681488037109375
    X7  R48  -0.02779313735663890838623046875
    X7  R49  -0.119361348450183868408203125
    X7  R50  -0.22081433236598968505859375
    X7  R51  -0.0115397758781909942626953125
    X7  R52  -0.062521450221538543701171875
    X7  R53  -0.049170874059200286865234375
    X7  R54  -0.467365801334381103515625
    X7  R55  0.124005623161792755126953125
    X7  R56  -0.22710137069225311279296875
    X7  R57  -0.0451272688806056976318359375
    X7  R58  -0.4773417413234710693359375
    X7  R59  0.317603886127471923828125
    X7  R60  -0.14901687204837799072265625
    X7  R61  0.137173831462860107421875
    X7  R62  -0.088883586227893829345703125
    X7  R63  0.04264692962169647216796875
    X7  R64  -0.253976404666900634765625
    X7  R65  -0.001191307441331446170806884765625
    X7  R66  0.0479889549314975738525390625
    X7  R67  0.063982628285884857177734375
    X7  R68  0.10001559555530548095703125
    X7  R69  0.0965998470783233642578125
    X7  R70  -0.265254437923431396484375
    X7  R71  0.2057304084300994873046875
    X7  R72  -0.077509112656116485595703125
    X7  R73  0.283959925174713134765625
    X7  R74  0.1081953942775726318359375
    X7  R75  -0.17340256273746490478515625
    X7  R76  -0.16850759088993072509765625
    X7  R77  -0.1766609251499176025390625
    X7  R78  0.0204082019627094268798828125
    X7  R79  -0.069873988628387451171875
    X7  R80  0.1947495639324188232421875
    X7  R81  -0.41893947124481201171875
    X7  R82  -0.1041586697101593017578125
    X7  R83  -0.066220462322235107421875
    X7  R84  -0.078166149556636810302734375
    X7  R85  0.060671269893646240234375
    X7  R86  0.4044061005115509033203125
    X7  R87  0.21892310678958892822265625
    X7  R88  0.13034737110137939453125
    X7  R89  0.081162154674530029296875
    X7  R90  -0.3392705619335174560546875
    X7  R91  -0.16182260215282440185546875
    X7  R92  0.48530209064483642578125
    X7  R93  0.1455279290676116943359375
    X7  R94  0.0259873531758785247802734375
    X7  R95  -0.176501333713531494140625
    X7  R96  -0.4542072713375091552734375
    X7  R97  -0.0405081324279308319091796875
    X7  R98  -0.3590830862522125244140625
    X7  R99  0.17055572569370269775390625
    X7  R100  -0.17103357613086700439453125
    X7  R101  -0.0609995760023593902587890625
    X7  R102  0.007245517335832118988037109375
    X7  R103  -0.3479178249835968017578125
    X7  R104  -0.230130970478057861328125
    X7  R105  -0.084299720823764801025390625
    X7  R106  0.2879250347614288330078125
    X7  R107  -0.0569477118551731109619140625
    X7  R108  -0.16365744173526763916015625
    X7  R109  0.03751118481159210205078125
    X7  R110  -0.18653762340545654296875
    X7  R111  -0.18855099380016326904296875
    X7  R112  0.229069888591766357421875
    X7  R113  0.0692947208881378173828125
    X7  R114  -0.394041538238525390625
    X7  R115  -0.303098738193511962890625
    X7  R116  0.00324758701026439666748046875
    X7  R117  -0.14839677512645721435546875
    X7  R118  -0.0040723909623920917510986328125
    X7  R119  0.0081875436007976531982421875
    X7  R120  0.0581790767610073089599609375
    X7  R121  -0.11414875090122222900390625
    X7  R122  -0.23361454904079437255859375
    X7  R123  0.02683316357433795928955078125
    X7  R124  0.0587618649005889892578125
    X7  R125  0.1834881603717803955078125
    X7  R126  0.18319581449031829833984375
    X7  R127  -0.2477972805500030517578125
    X8  COST  0
    X8  R0  -0.080795176327228546142578125
    X8  R1  0.089336387813091278076171875
    X8  R2  -0.3882794678211212158203125
    X8  R3  0.08702524006366729736328125
    X8  R4  0.0384968332946300506591796875
    X8  R5  0.0416606962680816650390625
    X8  R6  -0.014467638917267322540283203125
    X8  R7  -0.03364849090576171875
    X8  R8  -0.17419882118701934814453125
    X8  R9  -0.12679494917392730712890625
    X8  R10  -0.20734335482120513916015625
    X8  R11  -0.1478176116943359375
    X8  R12  -0.13918174803256988525390625
    X8  R13  -0.0181495137512683868408203125
    X8  R14  -0.067174352705478668212890625
    X8  R15  -0.11697576940059661865234375
    X8  R16  -0.061712421476840972900390625
    X8  R17  -0.02452846430242061614990234375
    X8  R18  0.1811783611774444580078125
    X8  R19  -0.0449046455323696136474609375
    X8  R20  0.123484395444393157958984375
    X8  R21  0.1353747546672821044921875
    X8  R22  0.22709201276302337646484375
    X8  R23  -0.275891780853271484375
    X8  R24  0.13041929900646209716796875
    X8  R25  0.160699069499969482421875
    X8  R26  -0.2432523071765899658203125
    X8  R27  0.07405079901218414306640625
    X8  R28  0.19520471990108489990234375
    X8  R29  0.0036618295125663280487060546875
    X8  R30  -0.1576426327228546142578125
    X8  R31  0.095959238708019256591796875
    X8  R32  -0.0506575442850589752197265625
    X8  R33  0.015238092280924320220947265625
    X8  R34  0.06032629311084747314453125
    X8  R35  0.2282994687557220458984375
    X8  R36  -0.21976442635059356689453125
    X8  R37  -0.261653602123260498046875
    X8  R38  0.16491343080997467041015625
    X8  R39  -0.097164742648601531982421875
    X8  R40  0.01734936796128749847412109375
    X8  R41  -0.02696244604885578155517578125
    X8  R42  0.08162723481655120849609375
    X8  R43  -0.0524724163115024566650390625
    X8  R44  -0.03319980204105377197265625
    X8  R45  0.2264235019683837890625
    X8  R46  0.12577246129512786865234375
    X8  R47  0.0487234704196453094482421875
    X8  R48  0.0271632783114910125732421875
    X8  R49  -0.31443297863006591796875
    X8  R50  -0.595385372638702392578125
    X8  R51  0.20376448333263397216796875
    X8  R52  0.16320542991161346435546875
    X8  R53  0.1437318623065948486328125
    X8  R54  0.18689902126789093017578125
    X8  R55  -0.00293503073044121265411376953125
    X8  R56  0.530878543853759765625
    X8  R57  0.16405403614044189453125
    X8  R58  -0.20784689486026763916015625
    X8  R59  -0.22042195498943328857421875
    X8  R60  0.03016748838126659393310546875
    X8  R61  0.0551128685474395751953125
    X8  R62  -0.0534331314265727996826171875
    X8  R63  0.07634712755680084228515625
    X8  R64  0.22806704044342041015625
    X8  R65  -0.038377501070499420166015625
    X8  R66  -0.0077600837685167789459228515625
    X8  R67  -0.091162078082561492919921875
    X8  R68  0.070689387619495391845703125
    X8  R69  -0.012819322757422924041748046875
    X8  R70  -0.0261165201663970947265625
    X8  R71  0.09659962356090545654296875
    X8  R72  -0.066022463142871856689453125
    X8  R73  -0.0330312065780162811279296875
    X8  R74  0.00380753981880843639373779296875
    X8  R75  -0.100035965442657470703125
    X8  R76  -0.04312975704669952392578125
    X8  R77  0.0826811492443084716796875
    X8  R78  0.004694511182606220245361328125
    X8  R79  0.2650007903575897216796875
    X8  R80  -0.088012941181659698486328125
    X8  R81  -0.421430289745330810546875
    X8  R82  0.19929222762584686279296875
    X8  R83  0.0498066730797290802001953125
    X8  R84  0.145289003849029541015625
    X8  R85  0.039614997804164886474609375
    X8  R86  0.0417875237762928009033203125
    X8  R87  0.2478029429912567138671875
    X8  R88  0.16960917413234710693359375
    X8  R89  0.34389913082122802734375
    X8  R90  -0.279739797115325927734375
    X8  R91  -0.2040021121501922607421875
    X8  R92  0.03027070872485637664794921875
    X8  R93  0.115801833570003509521484375
    X8  R94  -0.04244254529476165771484375
    X8  R95  0.4354074001312255859375
    X8  R96  -0.2549321949481964111328125
    X8  R97  -0.015264415182173252105712890625
    X8  R98  0.04724590480327606201171875
    X8  R99  0.2145850658416748046875
    X8  R100  0.0875544846057891845703125
    X8  R101  -0.02935188449919223785400390625
    X8  R102  -0.123959220945835113525390625
    X8  R103  0.107254378497600555419921875
    X8  R104  -0.3744964599609375
    X8  R105  -0.26142251491546630859375
    X8  R106  0.399235069751739501953125
    X8  R107  -0.06349284946918487548828125
    X8  R108  0.19307838380336761474609375
    X8  R109  0.1175559461116790771484375
    X8  R110  -0.2958175241947174072265625
    X8  R111  -0.1156235635280609130859375
    X8  R112  0.1907078325748443603515625
    X8  R113  0.013512589037418365478515625
    X8  R114  -0.24925385415554046630859375
    X8  R115  -0.3465681374073028564453125
    X8  R116  0.14948694407939910888671875
    X8  R117  -0.007813232950866222381591796875
    X8  R118  -0.0361153185367584228515625
    X8  R119  -0.11462791264057159423828125
    X8  R120  0.1704009473323822021484375
    X8  R121  0.1354506313800811767578125
    X8  R122  -0.026450626552104949951171875
    X8  R123  -0.2595195770263671875
    X8  R124  -0.105054475367069244384765625
    X8  R125  -0.0431123338639736175537109375
    X8  R126  0.3717234134674072265625
    X8  R127  -0.187960684299468994140625
    X9  COST  0
    X9  R0  -0.1771163642406463623046875
    X9  R1  -0.17220078408718109130859375
    X9  R2  -0.2506968975067138671875
    X9  R3  -0.0867540538311004638671875
    X9  R4  0.090437538921833038330078125
    X9  R5  -0.0361652337014675140380859375
    X9  R6  -0.16958566009998321533203125
    X9  R7  0.1036677062511444091796875
    X9  R8  -0.0430736579000949859619140625
    X9  R9  0.206861972808837890625
    X9  R10  0.374708950519561767578125
    X9  R11  -0.124976642429828643798828125
    X9  R12  -0.273652970790863037109375
    X9  R13  -0.198980510234832763671875
    X9  R14  -0.011733315885066986083984375
    X9  R15  -0.0389136970043182373046875
    X9  R16  0.303028762340545654296875
    X9  R17  0.095956631004810333251953125
    X9  R18  -0.440952122211456298828125
    X9  R19  0.05489252507686614990234375
    X9  R20  -0.013345207087695598602294921875
    X9  R21  -0.0415722429752349853515625
    X9  R22  -0.250451743602752685546875
    X9  R23  0.20661620795726776123046875
    X9  R24  0.0947681367397308349609375
    X9  R25  0.080614946782588958740234375
    X9  R26  0.3688931167125701904296875
    X9  R27  -0.02278728783130645751953125
    X9  R28  0.1723864078521728515625
    X9  R29  0.20944453775882720947265625
    X9  R30  0.091004140675067901611328125
    X9  R31  0.3732454776763916015625
    X9  R32  -0.036440365016460418701171875
    X9  R33  0.0407436750829219818115234375
    X9  R34  -0.2848128378391265869140625
    X9  R35  0.35762846469879150390625
    X9  R36  -0.4723217189311981201171875
    X9  R37  0.08099181950092315673828125
    X9  R38  0.22469295561313629150390625
    X9  R39  0.18839156627655029296875
    X9  R40  0.19088555872440338134765625
    X9  R41  0.14583887159824371337890625
    X9  R42  -0.0118473283946514129638671875
    X9  R43  -0.014178770594298839569091796875
    X9  R44  -0.46597576141357421875
    X9  R45  0.1426900327205657958984375
    X9  R46  0.010871873237192630767822265625
    X9  R47  -0.03031870909035205841064453125
    X9  R48  -0.0438961274921894073486328125
    X9  R49  0.299131214618682861328125
    X9  R50  0.112518943846225738525390625
    X9  R51  -0.1969280540943145751953125
    X9  R52  -0.049479551613330841064453125
    X9  R53  0.11607782542705535888671875
    X9  R54  -0.0041307839564979076385498046875
    X9  R55  -0.23656992614269256591796875
    X9  R56  -0.510653018951416015625
    X9  R57  -0.041881360113620758056640625
    X9  R58  0.0964507758617401123046875
    X9  R59  -0.0004436737508513033390045166015625
    X9  R60  0.02287144958972930908203125
    X9  R61  -0.201748907566070556640625
    X9  R62  0.02666953019797801971435546875
    X9  R63  0.14038892090320587158203125
    X9  R64  0.146033346652984619140625
    X9  R65  -0.4871486127376556396484375
    X9  R66  -0.3210386335849761962890625
    X9  R67  -0.16387705504894256591796875
    X9  R68  0.1301009654998779296875
    X9  R69  0.081564582884311676025390625
    X9  R70  0.087796866893768310546875
    X9  R71  -0.1653554141521453857421875
    X9  R72  0.16654694080352783203125
    X9  R73  0.3580973446369171142578125
    X9  R74  0.16989099979400634765625
    X9  R75  -0.377839565277099609375
    X9  R76  0.245800673961639404296875
    X9  R77  0.2765000760555267333984375
    X9  R78  0.16963256895542144775390625
    X9  R79  0.16085255146026611328125
    X9  R80  0.1272847354412078857421875
    X9  R81  -0.121487595140933990478515625
    X9  R82  -0.17702074348926544189453125
    X9  R83  0.13953745365142822265625
    X9  R84  0.1742109954357147216796875
    X9  R85  0.10912859439849853515625
    X9  R86  -0.0485628657042980194091796875
    X9  R87  -0.3693188726902008056640625
    X9  R88  -0.10469149053096771240234375
    X9  R89  -0.10633747279644012451171875
    X9  R90  0.00347710144706070423126220703125
    X9  R91  -0.0375448502600193023681640625
    X9  R92  0.085207544267177581787109375
    X9  R93  -0.03058796189725399017333984375
    X9  R94  -0.119022034108638763427734375
    X9  R95  -0.1787194907665252685546875
    X9  R96  0.296949326992034912109375
    X9  R97  0.11079823970794677734375
    X9  R98  -0.218147933483123779296875
    X9  R99  -0.001341842114925384521484375
    X9  R100  0.03473021090030670166015625
    X9  R101  0.01310442946851253509521484375
    X9  R102  -0.177287757396697998046875
    X9  R103  -0.078619994223117828369140625
    X9  R104  0.1295955181121826171875
    X9  R105  0.22882862389087677001953125
    X9  R106  -0.342892348766326904296875
    X9  R107  0.20821726322174072265625
    X9  R108  0.14906394481658935546875
    X9  R109  -0.072189293801784515380859375
    X9  R110  0.24069096148014068603515625
    X9  R111  0.14824925363063812255859375
    X9  R112  -0.333544254302978515625
    X9  R113  0.2324413955211639404296875
    X9  R114  0.011917329393327236175537109375
    X9  R115  -0.011259502731263637542724609375
    X9  R116  -0.28153645992279052734375
    X9  R117  0.1815166175365447998046875
    X9  R118  -0.09011948108673095703125
    X9  R119  -0.112144820392131805419921875
    X9  R120  -0.26678645610809326171875
    X9  R121  0.1310236454010009765625
    X9  R122  -0.0024954662658274173736572265625
    X9  R123  -0.017569519579410552978515625
    X9  R124  0.2663384974002838134765625
    X9  R125  -0.122684039175510406494140625
    X9  R126  -0.23231804370880126953125
    X9  R127  0.01257328875362873077392578125
    X10  COST  0
    X10  R0  0.250821650028228759765625
    X10  R1  -0.0169163234531879425048828125
    X10  R2  0.077832363545894622802734375
    X10  R3  -0.18398235738277435302734375
    X10  R4  0.536727964878082275390625
    X10  R5  -0.042819313704967498779296875
    X10  R6  0.22160787880420684814453125
    X10  R7  0.064236335456371307373046875
    X10  R8  0.3283272683620452880859375
    X10  R9  -0.090394325554370880126953125
    X10  R10  0.105588965117931365966796875
    X10  R11  0.041145391762256622314453125
    X10  R12  -0.1994930207729339599609375
    X10  R13  -0.25358927249908447265625
    X10  R14  -0.0095928050577640533447265625
    X10  R15  0.108917124569416046142578125
    X10  R16  0.3228567540645599365234375
    X10  R17  0.0014404295943677425384521484375
    X10  R18  -0.1047742664813995361328125
    X10  R19  0.0040714829228818416595458984375
    X10  R20  0.14172191917896270751953125
    X10  R21  0.003466763533651828765869140625
    X10  R22  0.337587893009185791015625
    X10  R23  0.15623320639133453369140625
    X10  R24  0.63416993618011474609375
    X10  R25  -0.233701229095458984375
    X10  R26  -0.0492808781564235687255859375
    X10  R27  -0.069532401859760284423828125
    X10  R28  0.12861497700214385986328125
    X10  R29  0.2651772797107696533203125
    X10  R30  0.1771743297576904296875
    X10  R31  0.406218111515045166015625
    X10  R32  -0.119840510189533233642578125
    X10  R33  0.014612452127039432525634765625
    X10  R34  -0.0173978917300701141357421875
    X10  R35  0.530057847499847412109375
    X10  R36  -0.172581493854522705078125
    X10  R37  -0.09760369360446929931640625
    X10  R38  -0.269408643245697021484375
    X10  R39  -0.0180461890995502471923828125
    X10  R40  0.17233656346797943115234375
    X10  R41  -0.1320137083530426025390625
    X10  R42  -0.0098933838307857513427734375
    X10  R43  0.4662837684154510498046875
    X10  R44  -0.193957030773162841796875
    X10  R45  -0.110381476581096649169921875
    X10  R46  0.012916930951178073883056640625
    X10  R47  0.070308692753314971923828125
    X10  R48  -0.0523473732173442840576171875
    X10  R49  -0.078915782272815704345703125
    X10  R50  -0.263706147670745849609375
    X10  R51  0.004995048046112060546875
    X10  R52  -0.0257796756923198699951171875
    X10  R53  0.3307758271694183349609375
    X10  R54  -0.07680253684520721435546875
    X10  R55  0.13161550462245941162109375
    X10  R56  -0.04090498387813568115234375
    X10  R57  0.12550556659698486328125
    X10  R58  0.252578675746917724609375
    X10  R59  -0.22933597862720489501953125
    X10  R60  0.035092957317829132080078125
    X10  R61  -0.04627333581447601318359375
    X10  R62  0.244935572147369384765625
    X10  R63  -0.0568688102066516876220703125
    X10  R64  0.393312394618988037109375
    X10  R65  0.10183744132518768310546875
    X10  R66  -0.26706230640411376953125
    X10  R67  -0.031678564846515655517578125
    X10  R68  0.1691211163997650146484375
    X10  R69  0.09617839753627777099609375
    X10  R70  0.01682140491902828216552734375
    X10  R71  -0.0806128978729248046875
    X10  R72  -0.18555630743503570556640625
    X10  R73  -0.18559135496616363525390625
    X10  R74  0.2002737224102020263671875
    X10  R75  -0.15510971844196319580078125
    X10  R76  -0.0301272757351398468017578125
    X10  R77  -0.190162181854248046875
    X10  R78  -0.18494488298892974853515625
    X10  R79  0.4771814644336700439453125
    X10  R80  0.319380819797515869140625
    X10  R81  0.21325971186161041259765625
    X10  R82  -0.001483025844208896160125732421875
    X10  R83  0.21979458630084991455078125
    X10  R84  0.097106911242008209228515625
    X10  R85  -0.101571880280971527099609375
    X10  R86  -0.1539096534252166748046875
    X10  R87  -0.2005350887775421142578125
    X10  R88  -0.1563746035099029541015625
    X10  R89  0.21901892125606536865234375
    X10  R90  0.088964402675628662109375
    X10  R91  -0.02369437552988529205322265625
    X10  R92  0.0217041037976741790771484375
    X10  R93  0.0569945685565471649169921875
    X10  R94  -0.1266101300716400146484375
    X10  R95  0.0392575971782207489013671875
    X10  R96  -0.1516769826412200927734375
    X10  R97  0.2007544040679931640625
    X10  R98  -0.14303682744503021240234375
    X10  R99  -0.2502869665622711181640625
    X10  R100  -0.053639046847820281982421875
    X10  R101  0.3506658971309661865234375
    X10  R102  -0.11640645563602447509765625
    X10  R103  -0.067959345877170562744140625
    X10  R104  -0.057153157889842987060546875
    X10  R105  0.02346247993409633636474609375
    X10  R106  0.003391406498849391937255859375
    X10  R107  0.107383169233798980712890625
    X10  R108  0.01009349524974822998046875
    X10  R109  0.3203452527523040771484375
    X10  R110  0.06537242233753204345703125
    X10  R111  -0.032439775764942169189453125
    X10  R112  0.0590147562325000762939453125
    X10  R113  -0.17829708755016326904296875
    X10  R114  -0.15435831248760223388671875
    X10  R115  -0.08078825473785400390625
    X10  R116  0.44480526447296142578125
    X10  R117  -0.1705518066883087158203125
    X10  R118  0.050581634044647216796875
    X10  R119  0.19181127846240997314453125
    X10  R120  0.18502424657344818115234375
    X10  R121  0.22044582664966583251953125
    X10  R122  -0.02858153544366359710693359375
    X10  R123  -0.2691909372806549072265625
    X10  R124  -0.24286936223506927490234375
    X10  R125  -0.0449366159737110137939453125
    X10  R126  -0.12635402381420135498046875
    X10  R127  -0.0163591206073760986328125
    X11  COST  0
    X11  R0  -0.02876843698322772979736328125
    X11  R1  0.1534397900104522705078125
    X11  R2  -0.1043920814990997314453125
    X11  R3  -0.0219111330807209014892578125
    X11  R4  -0.074717409908771514892578125
    X11  R5  0.4326851367950439453125
    X11  R6  0.03417383134365081787109375
    X11  R7  0.06722354888916015625
    X11  R8  -0.036764957010746002197265625
    X11  R9  -0.123950637876987457275390625
    X11  R10  0.755611717700958251953125
    X11  R11  -0.0083429552614688873291015625
    X11  R12  0.371723651885986328125
    X11  R13  0.22624616324901580810546875
    X11  R14  -0.308059155941009521484375
    X11  R15  0.3836276233196258544921875
    X11  R16  0.83963775634765625
    X11  R17  0.293351650238037109375
    X11  R18  0.277622282505035400390625
    X11  R19  0.082301624119281768798828125
    X11  R20  -0.123485423624515533447265625
    X11  R21  -0.084441505372524261474609375
    X11  R22  -0.3778814375400543212890625
    X11  R23  0.14098502695560455322265625
    X11  R24  -0.099166549742221832275390625
    X11  R25  0.10019685328006744384765625
    X11  R26  -0.19138406217098236083984375
    X11  R27  0.2829262316226959228515625
    X11  R28  -0.3439292609691619873046875
    X11  R29  0.7023327350616455078125
    X11  R30  -0.2974489033222198486328125
    X11  R31  0.657264649868011474609375
    X11  R32  0.04137037694454193115234375
    X11  R33  -0.067092843353748321533203125
    X11  R34  0.0592705309391021728515625
    X11  R35  -0.20333959162235260009765625
    X11  R36  -0.06178350746631622314453125
    X11  R37  0.16312290728092193603515625
    X11  R38  -0.216320931911468505859375
    X11  R39  -0.02625115774571895599365234375
    X11  R40  0.4044108092784881591796875
    X11  R41  -0.05627377331256866455078125
    X11  R42  0.698400080204010009765625
    X11  R43  -0.268874585628509521484375
    X11  R44  -0.307501852512359619140625
    X11  R45  -0.0327685959637165069580078125
    X11  R46  0.3537972271442413330078125
    X11  R47  0.1114248335361480712890625
    X11  R48  0.12004411220550537109375
    X11  R49  -0.01658823899924755096435546875
    X11  R50  0.154031336307525634765625
    X11  R51  0.094599656760692596435546875
    X11  R52  0.0545677728950977325439453125
    X11  R53  -0.12783674895763397216796875
    X11  R54  -0.00161888473667204380035400390625
    X11  R55  -0.674150645732879638671875
    X11  R56  0.2756413519382476806640625
    X11  R57  -0.1135881245136260986328125
    X11  R58  0.98763501644134521484375
    X11  R59  0.340434134006500244140625
    X11  R60  -0.09528486430644989013671875
    X11  R61  0.0042271553538739681243896484375
    X11  R62  0.24196420609951019287109375
    X11  R63  -0.03017339669167995452880859375
    X11  R64  -0.087788961827754974365234375
    X11  R65  -0.723294317722320556640625
    X11  R66  -0.3567132055759429931640625
    X11  R67  0.28045713901519775390625
    X11  R68  0.16242589056491851806640625
    X11  R69  0.101829469203948974609375
    X11  R70  -0.013082393445074558258056640625
    X11  R71  -0.0154646970331668853759765625
    X11  R72  -0.15275163948535919189453125
    X11  R73  -0.3405197560787200927734375
    X11  R74  0.15994434058666229248046875
    X11  R75  -0.23081345856189727783203125
    X11  R76  -0.3714124858379364013671875
    X11  R77  -0.084483824670314788818359375
    X11  R78  -0.082933984696865081787109375
    X11  R79  -0.61778080463409423828125
    X11  R80  -0.118964962661266326904296875
    X11  R81  0.0874529182910919189453125
    X11  R82  0.1429941654205322265625
    X11  R83  0.2009029686450958251953125
    X11  R84  0.3448673188686370849609375
    X11  R85  -0.40748059749603271484375
    X11  R86  0.32183778285980224609375
    X11  R87  0.564124584197998046875
    X11  R88  -0.61671543121337890625
    X11  R89  -0.1509349048137664794921875
    X11  R90  0.20560978353023529052734375
    X11  R91  0.232249915599822998046875
    X11  R92  -0.17074298858642578125
    X11  R93  0.000402252306230366230010986328125
    X11  R94  -0.14615888893604278564453125
    X11  R95  -0.15454904735088348388671875
    X11  R96  0.09110291302204132080078125
    X11  R97  0.2784919440746307373046875
    X11  R98  0.18904078006744384765625
    X11  R99  0.1957649290561676025390625
    X11  R100  -0.006719537079334259033203125
    X11  R101  0.3659180104732513427734375
    X11  R102  -0.2807689607143402099609375
    X11  R103  0.574848830699920654296875
    X11  R104  -0.012969193048775196075439453125
    X11  R105  -0.02344560064375400543212890625
    X11  R106  0.1554213464260101318359375
    X11  R107  0.2658509314060211181640625
    X11  R108  0.0440163575112819671630859375
    X11  R109  -0.22716082632541656494140625
    X11  R110  0.08004362881183624267578125
    X11  R111  -0.07494391500949859619140625
    X11  R112  0.102901585400104522705078125
    X11  R113  0.186477839946746826171875
    X11  R114  0.2451973259449005126953125
    X11  R115  0.335180699825286865234375
    X11  R116  -0.0379402637481689453125
    X11  R117  -0.2648433744907379150390625
    X11  R118  -0.26344501972198486328125
    X11  R119  -0.098538853228092193603515625
    X11  R120  -0.33903825283050537109375
    X11  R121  -0.19592185318470001220703125
    X11  R122  0.2727304995059967041015625
    X11  R123  0.274631559848785400390625
    X11  R124  0.04581181704998016357421875
    X11  R125  0.12897814810276031494140625
    X11  R126  0.24135644733905792236328125
    X11  R127  0.1175235211849212646484375
    X12  COST  0
    X12  R0  -0.012171926908195018768310546875
    X12  R1  -0.10470320284366607666015625
    X12  R2  -0.12815582752227783203125
    X12  R3  -0.187611758708953857421875
    X12  R4  -0.05813987553119659423828125
    X12  R5  -0.07000900804996490478515625
    X12  R6  -0.0655878484249114990234375
    X12  R7  -0.054077543318271636962890625
    X12  R8  -0.2601608335971832275390625
    X12  R9  -0.02039570920169353485107421875
    X12  R10  -0.09537716209888458251953125
    X12  R11  0.0687089264392852783203125
    X12  R12  -0.3613153398036956787109375
    X12  R13  0.17119391262531280517578125
    X12  R14  -0.08405302464962005615234375
    X12  R15  0.2652073204517364501953125
    X12  R16  0.23801095783710479736328125
    X12  R17  -0.02194535173475742340087890625
    X12  R18  0.16956146061420440673828125
    X12  R19  -0.04832531511783599853515625
    X12  R20  -0.079540066421031951904296875
    X12  R21  0.049296773970127105712890625
    X12  R22  0.059262000024318695068359375
    X12  R23  -0.21934042870998382568359375
    X12  R24  0.1773092746734619140625
    X12  R25  0.3128669559955596923828125
    X12  R26  0.16543833911418914794921875
    X12  R27  -0.11687622964382171630859375
    X12  R28  -0.22301883995532989501953125
    X12  R29  0.0777724087238311767578125
    X12  R30  -0.024092562496662139892578125
    X12  R31  0.096573092043399810791015625
    X12  R32  0.2368000447750091552734375
    X12  R33  -0.15713612735271453857421875
    X12  R34  -0.115812145173549652099609375
    X12  R35  -0.087089516222476959228515625
    X12  R36  0.11665461957454681396484375
    X12  R37  -0.326674401760101318359375
    X12  R38  0.4327246844768524169921875
    X12  R39  0.099546663463115692138671875
    X12  R40  0.3630039691925048828125
    X12  R41  0.00247753853909671306610107421875
    X12  R42  0.1866308748722076416015625
    X12  R43  -0.00098437606357038021087646484375
    X12  R44  -0.2680463492870330810546875
    X12  R45  0.17218576371669769287109375
    X12  R46  0.17460449039936065673828125
    X12  R47  -0.3780877590179443359375
    X12  R48  0.0116868652403354644775390625
    X12  R49  -0.24714116752147674560546875
    X12  R50  -0.118866719305515289306640625
    X12  R51  0.261461675167083740234375
    X12  R52  0.23205001652240753173828125
    X12  R53  -0.077930368483066558837890625
    X12  R54  0.2665610015392303466796875
    X12  R55  0.099613837897777557373046875
    X12  R56  -0.1477917730808258056640625
    X12  R57  0.1590566933155059814453125
    X12  R58  0.14914114773273468017578125
    X12  R59  -0.08035062253475189208984375
    X12  R60  0.129638850688934326171875
    X12  R61  -0.2441042959690093994140625
    X12  R62  0.074525177478790283203125
    X12  R63  -0.015157892368733882904052734375
    X12  R64  -0.034313909709453582763671875
    X12  R65  -0.2134300172328948974609375
    X12  R66  0.00377770815975964069366455078125
    X12  R67  0.3161596953868865966796875
    X12  R68  -0.127956449985504150390625
    X12  R69  -0.0412124954164028167724609375
    X12  R70  0.294391155242919921875
    X12  R71  -0.19756503403186798095703125
    X12  R72  -0.109683491289615631103515625
    X12  R73  0.145940601825714111328125
    X12  R74  -0.3669378757476806640625
    X12  R75  -0.119458176195621490478515625
    X12  R76  0.322046756744384765625
    X12  R77  0.0534327737987041473388671875
    X12  R78  0.0231366120278835296630859375
    X12  R79  0.100575245916843414306640625
    X12  R80  0.110205970704555511474609375
    X12  R81  -0.18731342256069183349609375
    X12  R82  -0.03104420192539691925048828125
    X12  R83  -0.24965642392635345458984375
    X12  R84  -0.2561570107936859130859375
    X12  R85  0.515914142131805419921875
    X12  R86  -0.2999168932437896728515625
    X12  R87  -0.377223312854766845703125
    X12  R88  0.1276874542236328125
    X12  R89  0.2837966978549957275390625
    X12  R90  -0.3207230269908905029296875
    X12  R91  -0.02379614673554897308349609375
    X12  R92  0.074663937091827392578125
    X12  R93  -0.15210698544979095458984375
    X12  R94  -0.068831495940685272216796875
    X12  R95  0.009524927474558353424072265625
    X12  R96  -0.07586883008480072021484375
    X12  R97  -0.12694840133190155029296875
    X12  R98  -0.300093710422515869140625
    X12  R99  -0.3335249722003936767578125
    X12  R100  0.2348475754261016845703125
    X12  R101  0.16087235510349273681640625
    X12  R102  0.2854184210300445556640625
    X12  R103  0.08432446420192718505859375
    X12  R104  -0.3145143985748291015625
    X12  R105  -0.159870207309722900390625
    X12  R106  -0.20316429436206817626953125
    X12  R107  0.02983248792588710784912109375
    X12  R108  0.1545814573764801025390625
    X12  R109  0.0034012687392532825469970703125
    X12  R110  0.230853140354156494140625
    X12  R111  0.30687749385833740234375
    X12  R112  -0.2531442344188690185546875
    X12  R113  0.0560302846133708953857421875
    X12  R114  -0.15292085707187652587890625
    X12  R115  -0.325919687747955322265625
    X12  R116  -0.014354772865772247314453125
    X12  R117  0.01040214858949184417724609375
    X12  R118  -0.1216898858547210693359375
    X12  R119  0.0209804736077785491943359375
    X12  R120  0.16263239085674285888671875
    X12  R121  -0.10526256263256072998046875
    X12  R122  -0.13662369549274444580078125
    X12  R123  0.4752676188945770263671875
    X12  R124  0.0123411156237125396728515625
    X12  R125  -0.107830680906772613525390625
    X12  R126  0.059474639594554901123046875
    X12  R127  -0.28833353519439697265625
    X13  COST  0
    X13  R0  0.0221830867230892181396484375
    X13  R1  0.02972577698528766632080078125
    X13  R2  -0.4196083545684814453125
    X13  R3  0.0864627659320831298828125
    X13  R4  0.4534356594085693359375
    X13  R5  -0.3642087280750274658203125
    X13  R6  -0.2081353664398193359375
    X13  R7  -0.079372487962245941162109375
    X13  R8  -0.0242266356945037841796875
    X13  R9  0.05744874477386474609375
    X13  R10  0.1588176786899566650390625
    X13  R11  0.1852976977825164794921875
    X13  R12  0.2878604233264923095703125
    X13  R13  -0.4384807646274566650390625
    X13  R14  -0.1340977847576141357421875
    X13  R15  -0.358352839946746826171875
    X13  R16  -0.2153159081935882568359375
    X13  R17  -0.0175958015024662017822265625
    X13  R18  0.1279474794864654541015625
    X13  R19  -0.134987056255340576171875
    X13  R20  -0.115696750581264495849609375
    X13  R21  -0.032492779195308685302734375
    X13  R22  0.139159977436065673828125
    X13  R23  -0.085733495652675628662109375
    X13  R24  0.16405500471591949462890625
    X13  R25  -0.2884160578250885009765625
    X13  R26  -0.044398240745067596435546875
    X13  R27  -0.059906519949436187744140625
    X13  R28  0.23447804152965545654296875
    X13  R29  -0.260389983654022216796875
    X13  R30  -0.445473968982696533203125
    X13  R31  -0.07174587249755859375
    X13  R32  -0.0062284930609166622161865234375
    X13  R33  -0.090927131474018096923828125
    X13  R34  -0.3756485283374786376953125
    X13  R35  0.1739475727081298828125
    X13  R36  -0.3821718990802764892578125
    X13  R37  -0.1380736529827117919921875
    X13  R38  0.24986864626407623291015625
    X13  R39  -0.255599319934844970703125
    X13  R40  -0.08050025999546051025390625
    X13  R41  -0.19630075991153717041015625
    X13  R42  -0.3829061090946197509765625
    X13  R43  0.2322973906993865966796875
    X13  R44  -0.474739372730255126953125
    X13  R45  -0.21757818758487701416015625
    X13  R46  0.256402552127838134765625
    X13  R47  -0.099656946957111358642578125
    X13  R48  -0.0483357645571231842041015625
    X13  R49  -0.0428496114909648895263671875
    X13  R50  0.0921882092952728271484375
    X13  R51  0.3081637322902679443359375
    X13  R52  -0.280311405658721923828125
    X13  R53  0.037411391735076904296875
    X13  R54  0.0080721117556095123291015625
    X13  R55  0.0453202724456787109375
    X13  R56  -0.088427282869815826416015625
    X13  R57  -0.071666829288005828857421875
    X13  R58  -0.17210437357425689697265625
    X13  R59  -0.3119935095310211181640625
    X13  R60  -0.1270015239715576171875
    X13  R61  -0.074530065059661865234375
    X13  R62  -0.103397615253925323486328125
    X13  R63  -0.0356036163866519927978515625
    X13  R64  0.033617556095123291015625
    X13  R65  0.3160129487514495849609375
    X13  R66  -0.322169005870819091796875
    X13  R67  -0.4179786145687103271484375
    X13  R68  -0.13048012554645538330078125
    X13  R69  -0.02184705249965190887451171875
    X13  R70  -0.23107130825519561767578125
    X13  R71  -0.01057270728051662445068359375
    X13  R72  -0.0474248938262462615966796875
    X13  R73  -0.197344005107879638671875
    X13  R74  -0.094956047832965850830078125
    X13  R75  -0.398819983005523681640625
    X13  R76  -0.24395827949047088623046875
    X13  R77  0.09275813400745391845703125
    X13  R78  -0.10436122119426727294921875
    X13  R79  0.3114844262599945068359375
    X13  R80  -0.29943943023681640625
    X13  R81  -0.4961796104907989501953125
    X13  R82  -0.16141279041767120361328125
    X13  R83  -0.249117791652679443359375
    X13  R84  -0.21289755403995513916015625
    X13  R85  -0.030477464199066162109375
    X13  R86  -0.13743130862712860107421875
    X13  R87  0.01622171886265277862548828125
    X13  R88  0.0030119209550321102142333984375
    X13  R89  -0.621506750583648681640625
    X13  R90  -0.291200816631317138671875
    X13  R91  0.0568153746426105499267578125
    X13  R92  -0.13287220895290374755859375
    X13  R93  -0.13836525380611419677734375
    X13  R94  -0.087328858673572540283203125
    X13  R95  -0.10343749821186065673828125
    X13  R96  -0.2562262713909149169921875
    X13  R97  -0.1559730470180511474609375
    X13  R98  0.069323115050792694091796875
    X13  R99  0.059597589075565338134765625
    X13  R100  -0.3154669702053070068359375
    X13  R101  -0.4523433148860931396484375
    X13  R102  -0.071685366332530975341796875
    X13  R103  -0.24249131977558135986328125
    X13  R104  -0.12583959102630615234375
    X13  R105  -0.3862064182758331298828125
    X13  R106  -0.099949538707733154296875
    X13  R107  -0.210580408573150634765625
    X13  R108  -0.112532980740070343017578125
    X13  R109  0.07129316031932830810546875
    X13  R110  -0.0410712994635105133056640625
    X13  R111  -0.2512156665325164794921875
    X13  R112  -0.07643257081508636474609375
    X13  R113  -0.121825553476810455322265625
    X13  R114  -0.122357733547687530517578125
    X13  R115  0.14365303516387939453125
    X13  R116  0.11486579477787017822265625
    X13  R117  -0.24563099443912506103515625
    X13  R118  -0.3541871011257171630859375
    X13  R119  0.1857427060604095458984375
    X13  R120  -0.24530394375324249267578125
    X13  R121  -0.02063710801303386688232421875
    X13  R122  -0.1210596561431884765625
    X13  R123  -0.17838747799396514892578125
    X13  R124  -0.0367580093443393707275390625
    X13  R125  0.01616608910262584686279296875
    X13  R126  -0.082465238869190216064453125
    X13  R127  -0.19837243854999542236328125
    X14  COST  0
    X14  R0  0.06697796285152435302734375
    X14  R1  -0.058441810309886932373046875
    X14  R2  0.077493123710155487060546875
    X14  R3  -0.0414950735867023468017578125
    X14  R4  0.30713331699371337890625
    X14  R5  -0.12758891284465789794921875
    X14  R6  -0.089257813990116119384765625
    X14  R7  0.01725168339908123016357421875
    X14  R8  -0.1436296999454498291015625
    X14  R9  -0.02252641506493091583251953125
    X14  R10  0.2268619537353515625
    X14  R11  0.22223205864429473876953125
    X14  R12  -0.080682478845119476318359375
    X14  R13  -0.20928837358951568603515625
    X14  R14  -0.0967577397823333740234375
    X14  R15  -0.2431437075138092041015625
    X14  R16  0.275914609432220458984375
    X14  R17  -0.000244083537836559116840362548828125
    X14  R18  0.20397080481052398681640625
    X14  R19  0.0614503808319568634033203125
    X14  R20  -0.10750679671764373779296875
    X14  R21  0.11486463248729705810546875
    X14  R22  -0.2144930660724639892578125
    X14  R23  0.01808556728065013885498046875
    X14  R24  -0.18785433471202850341796875
    X14  R25  -0.532943785190582275390625
    X14  R26  -0.22103874385356903076171875
    X14  R27  0.0213780514895915985107421875
    X14  R28  -0.0047591435723006725311279296875
    X14  R29  0.03108630888164043426513671875
    X14  R30  0.14627264440059661865234375
    X14  R31  -0.107985667884349822998046875
    X14  R32  0.22520072758197784423828125
    X14  R33  0.13068430125713348388671875
    X14  R34  0.07730750739574432373046875
    X14  R35  -0.352543652057647705078125
    X14  R36  -0.252673625946044921875
    X14  R37  0.097994245588779449462890625
    X14  R38  -0.1270701885223388671875
    X14  R39  -0.0910557210445404052734375
    X14  R40  -0.1816595494747161865234375
    X14  R41  -0.09020037949085235595703125
    X14  R42  -0.02935174666345119476318359375
    X14  R43  -0.314011394977569580078125
    X14  R44  0.087612725794315338134765625
    X14  R45  -0.20928604900836944580078125
    X14  R46  -0.01160280406475067138671875
    X14  R47  0.655916154384613037109375
    X14  R48  -0.051315821707248687744140625
    X14  R49  0.2211129665374755859375
    X14  R50  0.3172759711742401123046875
    X14  R51  0.03078401274979114532470703125
    X14  R52  0.118340887129306793212890625
    X14  R53  -0.0382449813187122344970703125
    X14  R54  -0.3073907196521759033203125
    X14  R55  -0.091533966362476348876953125
    X14  R56  0.085972256958484649658203125
    X14  R57  -0.00670512020587921142578125
    X14  R58  0.3770162165164947509765625
    X14  R59  0.4299679100513458251953125
    X14  R60  -0.19481052458286285400390625
    X14  R61  -0.013927124440670013427734375
    X14  R62  -0.278409481048583984375
    X14  R63  -0.189677536487579345703125
    X14  R64  -0.072049923241138458251953125
    X14  R65  -0.13140666484832763671875
    X14  R66  -0.17437936365604400634765625
    X14  R67  -0.3209739029407501220703125
    X14  R68  0.20374588668346405029296875
    X14  R69  0.1322827041149139404296875
    X14  R70  -0.002821187488734722137451171875
    X14  R71  -0.1279405653476715087890625
    X14  R72  0.21687163412570953369140625
    X14  R73  -0.080873548984527587890625
    X14  R74  -0.119085289537906646728515625
    X14  R75  -0.3287176191806793212890625
    X14  R76  0.17864513397216796875
    X14  R77  -0.04031908512115478515625
    X14  R78  -0.0354824103415012359619140625
    X14  R79  -0.13877074420452117919921875
    X14  R80  -0.3742752969264984130859375
    X14  R81  0.0022367858327925205230712890625
    X14  R82  -0.128013193607330322265625
    X14  R83  -0.02057408727705478668212890625
    X14  R84  -0.092902839183807373046875
    X14  R85  0.0493196137249469757080078125
    X14  R86  -0.1125940978527069091796875
    X14  R87  0.066587440669536590576171875
    X14  R88  -0.2916370928287506103515625
    X14  R89  0.129002273082733154296875
    X14  R90  0.159203231334686279296875
    X14  R91  0.101116657257080078125
    X14  R92  0.1514332294464111328125
    X14  R93  -0.1231949627399444580078125
    X14  R94  -0.1752872467041015625
    X14  R95  -0.0399894900619983673095703125
    X14  R96  0.12845753133296966552734375
    X14  R97  -0.031889021396636962890625
    X14  R98  0.15023951232433319091796875
    X14  R99  0.075136698782444000244140625
    X14  R100  0.1539590060710906982421875
    X14  R101  -0.086262799799442291259765625
    X14  R102  -0.440975725650787353515625
    X14  R103  0.296103060245513916015625
    X14  R104  0.13696038722991943359375
    X14  R105  -0.1277635097503662109375
    X14  R106  -0.01820726133882999420166015625
    X14  R107  -0.3702433109283447265625
    X14  R108  -0.20421564579010009765625
    X14  R109  -0.1576951444149017333984375
    X14  R110  0.008923017419874668121337890625
    X14  R111  -0.02742673642933368682861328125
    X14  R112  -0.19409565627574920654296875
    X14  R113  0.18654401600360870361328125
    X14  R114  0.24413691461086273193359375
    X14  R115  -0.14743568003177642822265625
    X14  R116  0.211862623691558837890625
    X14  R117  -0.17409981787204742431640625
    X14  R118  0.0502773039042949676513671875
    X14  R119  -0.0371784456074237823486328125
    X14  R120  -0.3009904325008392333984375
    X14  R121  -0.25872814655303955078125
    X14  R122  -0.103728733956813812255859375
    X14  R123  -0.4358520805835723876953125
    X14  R124  0.0271047167479991912841796875
    X14  R125  -0.132784366607666015625
    X14  R126  -0.055850982666015625
    X14  R127  -0.073254115879535675048828125
    X15  COST  0
    X15  R0  -0.079411089420318603515625
    X15  R1  0.067999385297298431396484375
    X15  R2  0.02753645367920398712158203125
    X15  R3  -0.18865872919559478759765625
    X15  R4  0.16677446663379669189453125
    X15  R5  0.08719675242900848388671875
    X15  R6  0.0597689151763916015625
    X15  R7  0.0450796224176883697509765625
    X15  R8  0.2513209879398345947265625
    X15  R9  0.04878248274326324462890625
    X15  R10  -0.2349835336208343505859375
    X15  R11  0.347181737422943115234375
    X15  R12  0.1611692011356353759765625
    X15  R13  -0.02373236604034900665283203125
    X15  R14  0.0310555659234523773193359375
    X15  R15  -0.1786730587482452392578125
    X15  R16  -0.063799135386943817138671875
    X15  R17  -0.2588673532009124755859375
    X15  R18  -0.3035003840923309326171875
    X15  R19  0.091031067073345184326171875
    X15  R20  -0.21506671607494354248046875
    X15  R21  -0.17624355852603912353515625
    X15  R22  0.03048413433134555816650390625
    X15  R23  -0.235270082950592041015625
    X15  R24  -0.2920949161052703857421875
    X15  R25  0.0326085947453975677490234375
    X15  R26  0.06420631706714630126953125
    X15  R27  0.134319603443145751953125
    X15  R28  0.02377564646303653717041015625
    X15  R29  -0.293326556682586669921875
    X15  R30  -0.07219220697879791259765625
    X15  R31  0.17025481164455413818359375
    X15  R32  -0.391992092132568359375
    X15  R33  0.2797720432281494140625
    X15  R34  0.0311571545898914337158203125
    X15  R35  -0.1648255288600921630859375
    X15  R36  -0.2985608279705047607421875
    X15  R37  -0.20079256594181060791015625
    X15  R38  0.0082276649773120880126953125
    X15  R39  0.26051986217498779296875
    X15  R40  0.1490241587162017822265625
    X15  R41  -0.02991570532321929931640625
    X15  R42  0.124729029834270477294921875
    X15  R43  -0.1769327223300933837890625
    X15  R44  -0.60743224620819091796875
    X15  R45  0.09767518937587738037109375
    X15  R46  0.3161011636257171630859375
    X15  R47  -0.01858047582209110260009765625
    X15  R48  0.22031776607036590576171875
    X15  R49  0.0537825711071491241455078125
    X15  R50  -0.48543894290924072265625
    X15  R51  -0.2023130357265472412109375
    X15  R52  0.01264205016195774078369140625
    X15  R53  0.2184260785579681396484375
    X15  R54  0.41859042644500732421875
    X15  R55  -0.0406344495713710784912109375
    X15  R56  0.113201729953289031982421875
    X15  R57  0.15137995779514312744140625
    X15  R58  0.0439788885414600372314453125
    X15  R59  -0.54312896728515625
    X15  R60  0.09137399494647979736328125
    X15  R61  0.037447653710842132568359375
    X15  R62  0.183227241039276123046875
    X15  R63  0.2817097008228302001953125
    X15  R64  0.071375072002410888671875
    X15  R65  -0.13646216690540313720703125
    X15  R66  0.1264812648296356201171875
    X15  R67  0.0398025922477245330810546875
    X15  R68  0.12669228017330169677734375
    X15  R69  0.15687973797321319580078125
    X15  R70  -0.044304169714450836181640625
    X15  R71  -0.0968343913555145263671875
    X15  R72  -0.1946506500244140625
    X15  R73  0.10474298894405364990234375
    X15  R74  -0.205808818340301513671875
    X15  R75  0.00816045515239238739013671875
    X15  R76  -0.24261714518070220947265625
    X15  R77  0.085748083889484405517578125
    X15  R78  0.09070478379726409912109375
    X15  R79  0.4080080091953277587890625
    X15  R80  0.23934598267078399658203125
    X15  R81  -0.11944223940372467041015625
    X15  R82  0.07878799736499786376953125
    X15  R83  0.14582712948322296142578125
    X15  R84  0.123033560812473297119140625
    X15  R85  0.057025253772735595703125
    X15  R86  0.07096116244792938232421875
    X15  R87  -0.025602780282497406005859375
    X15  R88  -0.0789096355438232421875
    X15  R89  0.092911221086978912353515625
    X15  R90  -0.096113078296184539794921875
    X15  R91  -0.35091149806976318359375
    X15  R92  -0.0269951038062572479248046875
    X15  R93  0.23249696195125579833984375
    X15  R94  -0.13229815661907196044921875
    X15  R95  0.20276190340518951416015625
    X15  R96  -0.3081881999969482421875
    X15  R97  0.15364073216915130615234375
    X15  R98  0.005858316086232662200927734375
    X15  R99  0.4653885662555694580078125
    X15  R100  -0.0396847240626811981201171875
    X15  R101  -0.1584131717681884765625
    X15  R102  0.02000176720321178436279296875
    X15  R103  0.255111634731292724609375
    X15  R104  -0.0131052397191524505615234375
    X15  R105  -0.2756261527538299560546875
    X15  R106  0.3094161450862884521484375
    X15  R107  0.049783624708652496337890625
    X15  R108  -0.053441874682903289794921875
    X15  R109  -0.012579218484461307525634765625
    X15  R110  -0.00275447801686823368072509765625
    X15  R111  -0.4018442630767822265625
    X15  R112  0.14452154934406280517578125
    X15  R113  -0.036382012069225311279296875
    X15  R114  -0.2525105774402618408203125
    X15  R115  0.17219431698322296142578125
    X15  R116  -0.20841197669506072998046875
    X15  R117  0.1817954480648040771484375
    X15  R118  0.18264190852642059326171875
    X15  R119  0.3190056383609771728515625
    X15  R120  0.043389193713665008544921875
    X15  R121  -0.014201514422893524169921875
    X15  R122  0.0352108366787433624267578125
    X15  R123  -0.416611015796661376953125
    X15  R124  0.2783118188381195068359375
    X15  R125  0.05983035266399383544921875
    X15  R126  0.36153697967529296875
    X15  R127  -0.070589460432529449462890625
    X16  COST  0
    X16  R0  0.080475188791751861572265625
    X16  R1  -0.134951651096343994140625
    X16  R2  0.559975147247314453125
    X16  R3  -0.3518849313259124755859375
    X16  R4  -0.12416255474090576171875
    X16  R5  -0.27144634723663330078125
    X16  R6  -0.1469759047031402587890625
    X16  R7  -0.144543111324310302734375
    X16  R8  -0.12942619621753692626953125
    X16  R9  -0.291860044002532958984375
    X16  R10  0.079409070312976837158203125
    X16  R11  0.1033723056316375732421875
    X16  R12  -0.2755832672119140625
    X16  R13  -0.12919485569000244140625
    X16  R14  -0.0599265210330486297607421875
    X16  R15  -0.2536065578460693359375
    X16  R16  -0.23087538778781890869140625
    X16  R17  0.1108689606189727783203125
    X16  R18  -0.2921150624752044677734375
    X16  R19  -0.00781689397990703582763671875
    X16  R20  -0.006179963238537311553955078125
    X16  R21  -0.22265480458736419677734375
    X16  R22  0.0460763275623321533203125
    X16  R23  -0.13084888458251953125
    X16  R24  0.3393018543720245361328125
    X16  R25  -0.3419809043407440185546875
    X16  R26  -0.1255950927734375
    X16  R27  -0.13638222217559814453125
    X16  R28  0.064741618931293487548828125
    X16  R29  -0.290334522724151611328125
    X16  R30  -0.101104117929935455322265625
    X16  R31  -0.4424924552440643310546875
    X16  R32  -0.350048005580902099609375
    X16  R33  0.0328213162720203399658203125
    X16  R34  -0.2605130672454833984375
    X16  R35  0.013780946843326091766357421875
    X16  R36  0.16516424715518951416015625
    X16  R37  -0.2851276397705078125
    X16  R38  -0.2879876792430877685546875
    X16  R39  0.062607802450656890869140625
    X16  R40  -0.24197171628475189208984375
    X16  R41  -0.06904177367687225341796875
    X16  R42  -0.4205207526683807373046875
    X16  R43  0.16464819014072418212890625
    X16  R44  0.33789074420928955078125
    X16  R45  -0.07224671542644500732421875
    X16  R46  0.112110175192356109619140625
    X16  R47  0.16310679912567138671875
    X16  R48  0.02349269576370716094970703125
    X16  R49  -0.009376374073326587677001953125
    X16  R50  -0.4906018674373626708984375
    X16  R51  -0.3544194996356964111328125
    X16  R52  -0.1632388532161712646484375
    X16  R53  -0.1017525494098663330078125
    X16  R54  -0.15145225822925567626953125
    X16  R55  -0.06343610584735870361328125
    X16  R56  -0.104635126888751983642578125
    X16  R57  -0.287874162197113037109375
    X16  R58  -0.24738173186779022216796875
    X16  R59  0.12110579013824462890625
    X16  R60  -0.12225626409053802490234375
    X16  R61  -0.2636327445507049560546875
    X16  R62  -0.235393464565277099609375
    X16  R63  -0.144368708133697509765625
    X16  R64  0.03248684108257293701171875
    X16  R65  0.4218120276927947998046875
    X16  R66  -0.12879072129726409912109375
    X16  R67  -0.2291018664836883544921875
    X16  R68  -0.18319571018218994140625
    X16  R69  0.24403835833072662353515625
    X16  R70  -0.106627263128757476806640625
    X16  R71  -0.3345510065555572509765625
    X16  R72  -0.439198195934295654296875
    X16  R73  -0.2437050640583038330078125
    X16  R74  -0.0222372002899646759033203125
    X16  R75  -0.21257822215557098388671875
    X16  R76  -0.3008781373500823974609375
    X16  R77  -0.2945307195186614990234375
    X16  R78  -0.108884297311305999755859375
    X16  R79  -0.02009982801973819732666015625
    X16  R80  0.25933921337127685546875
    X16  R81  -0.08868181705474853515625
    X16  R82  -0.0009026486077345907688140869140625
    X16  R83  -0.269678533077239990234375
    X16  R84  -0.275501430034637451171875
    X16  R85  -0.3662733733654022216796875
    X16  R86  0.2842284739017486572265625
    X16  R87  -0.08413232862949371337890625
    X16  R88  0.113124303519725799560546875
    X16  R89  -0.082416951656341552734375
    X16  R90  0.093919463455677032470703125
    X16  R91  -0.3119437694549560546875
    X16  R92  -0.417548835277557373046875
    X16  R93  -0.01659657619893550872802734375
    X16  R94  -0.109441734850406646728515625
    X16  R95  -0.3830978870391845703125
    X16  R96  0.0941361486911773681640625
    X16  R97  -0.18603171408176422119140625
    X16  R98  -0.27492845058441162109375
    X16  R99  0.2777015268802642822265625
    X16  R100  -0.0500487051904201507568359375
    X16  R101  -0.058205403387546539306640625
    X16  R102  -0.20133091509342193603515625
    X16  R103  -0.4430240094661712646484375
    X16  R104  -0.17509663105010986328125
    X16  R105  -0.19290387630462646484375
    X16  R106  -0.138332307338714599609375
    X16  R107  0.07945834100246429443359375
    X16  R108  -0.108820162713527679443359375
    X16  R109  -0.0431534536182880401611328125
    X16  R110  0.239086687564849853515625
    X16  R111  -0.245805799961090087890625
    X16  R112  -0.24092964828014373779296875
    X16  R113  0.010577590204775333404541015625
    X16  R114  -0.0358399450778961181640625
    X16  R115  -0.077391318976879119873046875
    X16  R116  -0.2455085813999176025390625
    X16  R117  -0.27426993846893310546875
    X16  R118  -0.3247421085834503173828125
    X16  R119  0.02739803493022918701171875
    X16  R120  -0.067550458014011383056640625
    X16  R121  -0.24205958843231201171875
    X16  R122  0.18690897524356842041015625
    X16  R123  0.184391677379608154296875
    X16  R124  0.09522028267383575439453125
    X16  R125  -0.0589882545173168182373046875
    X16  R126  0.044067658483982086181640625
    X16  R127  -0.08510752022266387939453125
    X17  COST  0
    X17  R0  -0.22418637573719024658203125
    X17  R1  -0.0049180886708199977874755859375
    X17  R2  -0.4409073889255523681640625
    X17  R3  0.01041498593986034393310546875
    X17  R4  0.1095608174800872802734375
    X17  R5  -0.011778817512094974517822265625
    X17  R6  -0.120946593582630157470703125
    X17  R7  0.0330371968448162078857421875
    X17  R8  0.278149545192718505859375
    X17  R9  -0.24417746067047119140625
    X17  R10  -0.20148944854736328125
    X17  R11  0.08119346201419830322265625
    X17  R12  -0.2718138992786407470703125
    X17  R13  -0.02290906012058258056640625
    X17  R14  0.26460540294647216796875
    X17  R15  0.03327687084674835205078125
    X17  R16  -0.328175842761993408203125
    X17  R17  0.011718978174030780792236328125
    X17  R18  0.4226601123809814453125
    X17  R19  -0.0531120486557483673095703125
    X17  R20  -0.006077162921428680419921875
    X17  R21  -0.048327587544918060302734375
    X17  R22  0.114553667604923248291015625
    X17  R23  0.0529459826648235321044921875
    X17  R24  -0.20049370825290679931640625
    X17  R25  0.0693648159503936767578125
    X17  R26  -0.1890693604946136474609375
    X17  R27  -0.080199368298053741455078125
    X17  R28  -0.0556215234100818634033203125
    X17  R29  -0.022118560969829559326171875
    X17  R30  -0.05269069969654083251953125
    X17  R31  0.14424808323383331298828125
    X17  R32  0.17539298534393310546875
    X17  R33  0.0919393599033355712890625
    X17  R34  0.1833389699459075927734375
    X17  R35  0.0269383378326892852783203125
    X17  R36  -0.2897808253765106201171875
    X17  R37  0.2042173445224761962890625
    X17  R38  -0.3174224793910980224609375
    X17  R39  -0.19906131923198699951171875
    X17  R40  -0.4171395003795623779296875
    X17  R41  -0.08415649831295013427734375
    X17  R42  -0.115648739039897918701171875
    X17  R43  0.2697400748729705810546875
    X17  R44  0.1374607980251312255859375
    X17  R45  -0.23321260511875152587890625
    X17  R46  0.10781656205654144287109375
    X17  R47  -0.21073712408542633056640625
    X17  R48  -0.037046454846858978271484375
    X17  R49  0.0420003831386566162109375
    X17  R50  -0.0440558530390262603759765625
    X17  R51  -0.0323553867638111114501953125
    X17  R52  0.00358218816109001636505126953125
    X17  R53  0.1405567824840545654296875
    X17  R54  -0.25950062274932861328125
    X17  R55  -0.02599210850894451141357421875
    X17  R56  0.39980542659759521484375
    X17  R57  -0.012350806035101413726806640625
    X17  R58  -0.4088541567325592041015625
    X17  R59  -0.3028320372104644775390625
    X17  R60  -0.08784668147563934326171875
    X17  R61  0.099937617778778076171875
    X17  R62  0.204308986663818359375
    X17  R63  0.009536893106997013092041015625
    X17  R64  0.02210877276957035064697265625
    X17  R65  0.079219259321689605712890625
    X17  R66  -0.0022136769257485866546630859375
    X17  R67  -0.13848932087421417236328125
    X17  R68  0.035640202462673187255859375
    X17  R69  -0.0558327548205852508544921875
    X17  R70  0.097140111029148101806640625
    X17  R71  -0.008298535831272602081298828125
    X17  R72  -0.23713456094264984130859375
    X17  R73  -0.42673790454864501953125
    X17  R74  0.077149786055088043212890625
    X17  R75  0.07642503082752227783203125
    X17  R76  -0.112358473241329193115234375
    X17  R77  -0.2862297594547271728515625
    X17  R78  -0.0061452533118426799774169921875
    X17  R79  0.13722710311412811279296875
    X17  R80  -0.42218685150146484375
    X17  R81  0.183612048625946044921875
    X17  R82  -0.226737678050994873046875
    X17  R83  -0.087540559470653533935546875
    X17  R84  0.0389566905796527862548828125
    X17  R85  -0.15432012081146240234375
    X17  R86  0.257565975189208984375
    X17  R87  0.0338857434689998626708984375
    X17  R88  0.23592646420001983642578125
    X17  R89  0.082859449088573455810546875
    X17  R90  0.2915326654911041259765625
    X17  R91  0.218756973743438720703125
    X17  R92  0.3971095979213714599609375
    X17  R93  -0.1261157691478729248046875
    X17  R94  -0.15467177331447601318359375
    X17  R95  -0.086899973452091217041015625
    X17  R96  -0.01419980265200138092041015625
    X17  R97  0.0547027476131916046142578125
    X17  R98  -0.1140979230403900146484375
    X17  R99  -0.24598944187164306640625
    X17  R100  -0.078161753714084625244140625
    X17  R101  -0.2450797259807586669921875
    X17  R102  0.0441243834793567657470703125
    X17  R103  -0.085475258529186248779296875
    X17  R104  0.122053004801273345947265625
    X17  R105  0.17385734617710113525390625
    X17  R106  -0.0605201311409473419189453125
    X17  R107  -0.0049336743541061878204345703125
    X17  R108  -0.2240588366985321044921875
    X17  R109  0.09223650395870208740234375
    X17  R110  -0.263851106166839599609375
    X17  R111  -0.00118604372255504131317138671875
    X17  R112  -0.001485106884501874446868896484375
    X17  R113  -0.17023672163486480712890625
    X17  R114  0.3117556869983673095703125
    X17  R115  -0.3174927234649658203125
    X17  R116  0.528396666049957275390625
    X17  R117  -0.4588271677494049072265625
    X17  R118  -0.268110215663909912109375
    X17  R119  0.19675846397876739501953125
    X17  R120  0.12803362309932708740234375
    X17  R121  0.13053439557552337646484375
    X17  R122  0.1363236010074615478515625
    X17  R123  -0.3186939656734466552734375
    X17  R124  -0.08085580170154571533203125
    X17  R125  0.05776031315326690673828125
    X17  R126  0.0573027692735195159912109375
    X17  R127  -0.075164549052715301513671875
    X18  COST  0
    X18  R0  0.20608465373516082763671875
    X18  R1  0.0418627224862575531005859375
    X18  R2  0.1285498440265655517578125
    X18  R3  -0.041294433176517486572265625
    X18  R4  0.1649513542652130126953125
    X18  R5  -0.047336809337139129638671875
    X18  R6  -0.010003291070461273193359375
    X18  R7  -0.0314596854150295257568359375
    X18  R8  -0.011540732346475124359130859375
    X18  R9  -0.19643615186214447021484375
    X18  R10  -0.11463095247745513916015625
    X18  R11  -0.2084016501903533935546875
    X18  R12  0.113685525953769683837890625
    X18  R13  0.21773158013820648193359375
    X18  R14  0.529458701610565185546875
    X18  R15  0.16706253588199615478515625
    X18  R16  0.2721369266510009765625
    X18  R17  -0.358558714389801025390625
    X18  R18  -0.3089568316936492919921875
    X18  R19  -0.076041914522647857666015625
    X18  R20  0.072356916964054107666015625
    X18  R21  0.0303519330918788909912109375
    X18  R22  0.11020125448703765869140625
    X18  R23  -0.30727303028106689453125
    X18  R24  0.014143628068268299102783203125
    X18  R25  0.012549984268844127655029296875
    X18  R26  0.20252753794193267822265625
    X18  R27  -0.119250118732452392578125
    X18  R28  0.12867228686809539794921875
    X18  R29  0.2845890223979949951171875
    X18  R30  0.0365712083876132965087890625
    X18  R31  -0.081868387758731842041015625
    X18  R32  -0.470975697040557861328125
    X18  R33  0.01097957231104373931884765625
    X18  R34  0.12232945859432220458984375
    X18  R35  0.320107161998748779296875
    X18  R36  0.3483409881591796875
    X18  R37  -0.1011931002140045166015625
    X18  R38  -0.13907332718372344970703125
    X18  R39  -0.133101761341094970703125
    X18  R40  -0.12862169742584228515625
    X18  R41  -0.0524331517517566680908203125
    X18  R42  -0.13304878771305084228515625
    X18  R43  -0.0302454940974712371826171875
    X18  R44  0.2211965024471282958984375
    X18  R45  0.16341610252857208251953125
    X18  R46  -0.22565867006778717041015625
    X18  R47  0.02667201124131679534912109375
    X18  R48  0.0486501790583133697509765625
    X18  R49  0.20908276736736297607421875
    X18  R50  -0.107549987733364105224609375
    X18  R51  -0.4656219780445098876953125
    X18  R52  -0.1467239856719970703125
    X18  R53  -0.0276795588433742523193359375
    X18  R54  -0.33968055248260498046875
    X18  R55  0.311967551708221435546875
    X18  R56  0.24959807097911834716796875
    X18  R57  0.03003695048391819000244140625
    X18  R58  0.15096120536327362060546875
    X18  R59  0.63222014904022216796875
    X18  R60  0.2663463056087493896484375
    X18  R61  0.056221686303615570068359375
    X18  R62  -0.12097083032131195068359375
    X18  R63  0.09418372809886932373046875
    X18  R64  0.17919678986072540283203125
    X18  R65  0.03341709077358245849609375
    X18  R66  -0.10439972579479217529296875
    X18  R67  0.18165506422519683837890625
    X18  R68  0.0933851897716522216796875
    X18  R69  -0.351353108882904052734375
    X18  R70  -0.17864818871021270751953125
    X18  R71  0.0738783180713653564453125
    X18  R72  0.06723158061504364013671875
    X18  R73  0.0890409946441650390625
    X18  R74  0.2651967704296112060546875
    X18  R75  0.0594675801694393157958984375
    X18  R76  -0.384312152862548828125
    X18  R77  -0.011120964772999286651611328125
    X18  R78  0.233880341053009033203125
    X18  R79  -0.079662136733531951904296875
    X18  R80  -0.17847649753093719482421875
    X18  R81  -0.2745683193206787109375
    X18  R82  -0.12926997244358062744140625
    X18  R83  0.12499286234378814697265625
    X18  R84  -0.11286766827106475830078125
    X18  R85  -0.013889526017010211944580078125
    X18  R86  -0.111323662102222442626953125
    X18  R87  0.2433942854404449462890625
    X18  R88  -0.042614005506038665771484375
    X18  R89  0.01659696362912654876708984375
    X18  R90  -0.1921919286251068115234375
    X18  R91  -0.19033168256282806396484375
    X18  R92  -0.312674820423126220703125
    X18  R93  -0.091523937880992889404296875
    X18  R94  -0.0093554556369781494140625
    X18  R95  0.2690708935260772705078125
    X18  R96  -0.21650588512420654296875
    X18  R97  0.02726810984313488006591796875
    X18  R98  -0.0603050701320171356201171875
    X18  R99  0.19630621373653411865234375
    X18  R100  -0.066671647131443023681640625
    X18  R101  0.2824266850948333740234375
    X18  R102  -0.041606910526752471923828125
    X18  R103  0.18449819087982177734375
    X18  R104  -0.08638463914394378662109375
    X18  R105  0.02336787618696689605712890625
    X18  R106  0.1314789354801177978515625
    X18  R107  -0.11599518358707427978515625
    X18  R108  -0.0853247940540313720703125
    X18  R109  -0.04751144349575042724609375
    X18  R110  -0.0000572485732845962047576904296875
    X18  R111  -0.356710255146026611328125
    X18  R112  0.255924165248870849609375
    X18  R113  0.16980092227458953857421875
    X18  R114  -0.303494274616241455078125
    X18  R115  0.22221739590167999267578125
    X18  R116  0.2059204280376434326171875
    X18  R117  0.446631729602813720703125
    X18  R118  0.3484207093715667724609375
    X18  R119  0.18873326480388641357421875
    X18  R120  0.17022089660167694091796875
    X18  R121  -0.02892247773706912994384765625
    X18  R122  -0.14155669510364532470703125
    X18  R123  0.121222265064716339111328125
    X18  R124  -0.070542566478252410888671875
    X18  R125  -0.15690995752811431884765625
    X18  R126  0.1762570440769195556640625
    X18  R127  0.103850267827510833740234375
    X19  COST  0
    X19  R0  0.07998900115489959716796875
    X19  R1  0.0604261644184589385986328125
    X19  R2  -0.082320488989353179931640625
    X19  R3  0.092385925352573394775390625
    X19  R4  -0.12631399929523468017578125
    X19  R5  -0.0624434314668178558349609375
    X19  R6  -0.20058052241802215576171875
    X19  R7  -0.0450488030910491943359375
    X19  R8  -0.261400699615478515625
    X19  R9  0.0272379629313945770263671875
    X19  R10  0.0365824289619922637939453125
    X19  R11  -0.2918131351470947265625
    X19  R12  -0.02948935516178607940673828125
    X19  R13  -0.0305626876652240753173828125
    X19  R14  0.0384525619447231292724609375
    X19  R15  0.28557741641998291015625
    X19  R16  0.400779664516448974609375
    X19  R17  0.02827825956046581268310546875
    X19  R18  0.0537679456174373626708984375
    X19  R19  -0.04597409069538116455078125
    X19  R20  0.0596703104674816131591796875
    X19  R21  0.06296084821224212646484375
    X19  R22  0.1590611636638641357421875
    X19  R23  -0.19212226569652557373046875
    X19  R24  -0.14595679938793182373046875
    X19  R25  0.1843166649341583251953125
    X19  R26  -0.01797245442867279052734375
    X19  R27  -0.12893666326999664306640625
    X19  R28  -0.110835038125514984130859375
    X19  R29  0.332618772983551025390625
    X19  R30  0.15841884911060333251953125
    X19  R31  -0.0501274950802326202392578125
    X19  R32  0.329379379749298095703125
    X19  R33  0.068622983992099761962890625
    X19  R34  -0.068017773330211639404296875
    X19  R35  0.049306951463222503662109375
    X19  R36  0.2304512560367584228515625
    X19  R37  -0.059751339256763458251953125
    X19  R38  0.190254271030426025390625
    X19  R39  0.108702279627323150634765625
    X19  R40  0.2015803754329681396484375
    X19  R41  0.0636205375194549560546875
    X19  R42  0.07762821018695831298828125
    X19  R43  -0.19995422661304473876953125
    X19  R44  -0.22715513408184051513671875
    X19  R45  -0.071723617613315582275390625
    X19  R46  0.057649135589599609375
    X19  R47  -0.0365163050591945648193359375
    X19  R48  0.005550689063966274261474609375
    X19  R49  -0.1170465648174285888671875
    X19  R50  0.21428592503070831298828125
    X19  R51  0.1635988056659698486328125
    X19  R52  0.0108804404735565185546875
    X19  R53  -0.08646301925182342529296875
    X19  R54  0.0370382778346538543701171875
    X19  R55  -0.0620269440114498138427734375
    X19  R56  -0.128109037876129150390625
    X19  R57  -0.10436780750751495361328125
    X19  R58  0.3646086752414703369140625
    X19  R59  0.338904321193695068359375
    X19  R60  -0.26939737796783447265625
    X19  R61  0.099398024380207061767578125
    X19  R62  -0.152974903583526611328125
    X19  R63  -0.00089935562573373317718505859375
    X19  R64  0.1617195308208465576171875
    X19  R65  0.115698613226413726806640625
    X19  R66  -0.02381836064159870147705078125
    X19  R67  0.0225741602480411529541015625
    X19  R68  0.0522391162812709808349609375
    X19  R69  0.084762275218963623046875
    X19  R70  0.075524859130382537841796875
    X19  R71  -0.0835461318492889404296875
    X19  R72  0.108853809535503387451171875
    X19  R73  -0.159084737300872802734375
    X19  R74  0.12795184552669525146484375
    X19  R75  -0.2683664262294769287109375
    X19  R76  0.2474011480808258056640625
    X19  R77  0.297229826450347900390625
    X19  R78  -0.163352668285369873046875
    X19  R79  -0.4480192959308624267578125
    X19  R80  0.1020341813564300537109375
    X19  R81  0.05625437200069427490234375
    X19  R82  0.0762009322643280029296875
    X19  R83  -0.05068878829479217529296875
    X19  R84  0.013710088096559047698974609375
    X19  R85  -0.019356526434421539306640625
    X19  R86  0.21222551167011260986328125
    X19  R87  -0.102869398891925811767578125
    X19  R88  -0.3861827850341796875
    X19  R89  0.19456689059734344482421875
    X19  R90  -0.04215322434902191162109375
    X19  R91  -0.113122664391994476318359375
    X19  R92  0.00406416319310665130615234375
    X19  R93  0.0473528206348419189453125
    X19  R94  0.0723834931850433349609375
    X19  R95  -0.041890196502208709716796875
    X19  R96  0.0526579655706882476806640625
    X19  R97  -0.0470631606876850128173828125
    X19  R98  -0.21643500030040740966796875
    X19  R99  -0.17108921706676483154296875
    X19  R100  -0.011002011597156524658203125
    X19  R101  -0.0575418509542942047119140625
    X19  R102  -0.20467843115329742431640625
    X19  R103  0.18907095491886138916015625
    X19  R104  0.042459063231945037841796875
    X19  R105  -0.0421488992869853973388671875
    X19  R106  0.108950398862361907958984375
    X19  R107  -0.01079796254634857177734375
    X19  R108  0.14580388367176055908203125
    X19  R109  0.0453218519687652587890625
    X19  R110  0.381592273712158203125
    X19  R111  0.45972526073455810546875
    X19  R112  -0.1679303348064422607421875
    X19  R113  -0.1992788016796112060546875
    X19  R114  0.20258538424968719482421875
    X19  R115  -0.2137893140316009521484375
    X19  R116  -0.16934056580066680908203125
    X19  R117  -0.07818917930126190185546875
    X19  R118  -0.20187954604625701904296875
    X19  R119  0.02804343961179256439208984375
    X19  R120  -0.093241870403289794921875
    X19  R121  -0.107010446488857269287109375
    X19  R122  0.13526494801044464111328125
    X19  R123  -0.21388934552669525146484375
    X19  R124  0.29077231884002685546875
    X19  R125  -0.13582880795001983642578125
    X19  R126  -0.21398830413818359375
    X19  R127  -0.308672606945037841796875
    X20  COST  0
    X20  R0  -0.08994443714618682861328125
    X20  R1  -0.0579173974692821502685546875
    X20  R2  0.3431398868560791015625
    X20  R3  -0.08179508149623870849609375
    X20  R4  -0.102006308734416961669921875
    X20  R5  0.0810043513774871826171875
    X20  R6  0.12805999815464019775390625
    X20  R7  0.22787164151668548583984375
    X20  R8  -0.0410507619380950927734375
    X20  R9  -0.18571887910366058349609375
    X20  R10  0.3666020929813385009765625
    X20  R11  -0.17343513667583465576171875
    X20  R12  -0.15228028595447540283203125
    X20  R13  0.2470361292362213134765625
    X20  R14  -0.1646316945552825927734375
    X20  R15  0.04251134395599365234375
    X20  R16  0.10561454296112060546875
    X20  R17  0.045109264552593231201171875
    X20  R18  0.080891154706478118896484375
    X20  R19  0.0347905457019805908203125
    X20  R20  0.365388095378875732421875
    X20  R21  -0.07764168083667755126953125
    X20  R22  -0.002076127566397190093994140625
    X20  R23  -0.07965020835399627685546875
    X20  R24  0.352235317230224609375
    X20  R25  0.2342884540557861328125
    X20  R26  -0.29798853397369384765625
    X20  R27  0.04548649489879608154296875
    X20  R28  -0.1517644226551055908203125
    X20  R29  0.20436368882656097412109375
    X20  R30  -0.079035095870494842529296875
    X20  R31  0.0878471434116363525390625
    X20  R32  -0.05325873196125030517578125
    X20  R33  -0.0395783744752407073974609375
    X20  R34  -0.107758067548274993896484375
    X20  R35  0.14890877902507781982421875
    X20  R36  0.2361110746860504150390625
    X20  R37  -0.06570349633693695068359375
    X20  R38  0.115586467087268829345703125
    X20  R39  -0.16685824096202850341796875
    X20  R40  0.081621341407299041748046875
    X20  R41  0.03335000574588775634765625
    X20  R42  -0.033802144229412078857421875
    X20  R43  -0.06379209458827972412109375
    X20  R44  -0.1763992607593536376953125
    X20  R45  0.079572595655918121337890625
    X20  R46  -0.14633606374263763427734375
    X20  R47  -0.325687706470489501953125
    X20  R48  -0.080471910536289215087890625
    X20  R49  -0.23345132172107696533203125
    X20  R50  -0.226807534694671630859375
    X20  R51  0.3253828585147857666015625
    X20  R52  0.1814968287944793701171875
    X20  R53  -0.166241943836212158203125
    X20  R54  -0.238604843616485595703125
    X20  R55  0.00518404506146907806396484375
    X20  R56  0.3651716411113739013671875
    X20  R57  0.17883859574794769287109375
    X20  R58  0.32395255565643310546875
    X20  R59  0.37278163433074951171875
    X20  R60  -0.119177646934986114501953125
    X20  R61  -0.11361192166805267333984375
    X20  R62  -0.043666295707225799560546875
    X20  R63  0.0647231042385101318359375
    X20  R64  0.107332415878772735595703125
    X20  R65  -0.24824835360050201416015625
    X20  R66  -0.24366407096385955810546875
    X20  R67  -0.13832090795040130615234375
    X20  R68  0.0406663529574871063232421875
    X20  R69  -0.21542488038539886474609375
    X20  R70  0.119663573801517486572265625
    X20  R71  0.08390636742115020751953125
    X20  R72  -0.0064257024787366390228271484375
    X20  R73  -0.121304772794246673583984375
    X20  R74  0.063130319118499755859375
    X20  R75  -0.08310544490814208984375
    X20  R76  -0.04071404039859771728515625
    X20  R77  -0.2063117325305938720703125
    X20  R78  -0.09979228675365447998046875
    X20  R79  0.029082290828227996826171875
    X20  R80  -0.006135328672826290130615234375
    X20  R81  0.13579033315181732177734375
    X20  R82  0.2882414758205413818359375
    X20  R83  -0.186198711395263671875
    X20  R84  -0.0001926882541738450527191162109375
    X20  R85  0.2572182118892669677734375
    X20  R86  0.0231226943433284759521484375
    X20  R87  0.0254446007311344146728515625
    X20  R88  -0.051386080682277679443359375
    X20  R89  0.33858478069305419921875
    X20  R90  0.095179356634616851806640625
    X20  R91  -0.19999189674854278564453125
    X20  R92  -0.22994492948055267333984375
    X20  R93  0.02161407656967639923095703125
    X20  R94  -0.0390498973429203033447265625
    X20  R95  0.01622252166271209716796875
    X20  R96  -0.02292706072330474853515625
    X20  R97  0.0319023430347442626953125
    X20  R98  0.363271057605743408203125
    X20  R99  0.098843596875667572021484375
    X20  R100  0.040936864912509918212890625
    X20  R101  0.2591225206851959228515625
    X20  R102  0.15813909471035003662109375
    X20  R103  -0.08923818171024322509765625
    X20  R104  -0.07885549962520599365234375
    X20  R105  0.21822671592235565185546875
    X20  R106  0.2315923869609832763671875
    X20  R107  0.12391640245914459228515625
    X20  R108  -0.091326169669628143310546875
    X20  R109  -0.06713981926441192626953125
    X20  R110  -0.2406289279460906982421875
    X20  R111  -0.111893780529499053955078125
    X20  R112  0.0382221080362796783447265625
    X20  R113  0.074428297579288482666015625
    X20  R114  0.098585329949855804443359375
    X20  R115  -0.0213461257517337799072265625
    X20  R116  -0.120703659951686859130859375
    X20  R117  -0.17025385797023773193359375
    X20  R118  0.280557692050933837890625
    X20  R119  -0.071197949349880218505859375
    X20  R120  -0.2176930010318756103515625
    X20  R121  0.20855633914470672607421875
    X20  R122  0.17637409269809722900390625
    X20  R123  -0.1654008328914642333984375
    X20  R124  -0.0484568960964679718017578125
    X20  R125  0.12466426193714141845703125
    X20  R126  0.3665181696414947509765625
    X20  R127  0.05482544004917144775390625
    X21  COST  0
    X21  R0  0.15924294292926788330078125
    X21  R1  -0.108781039714813232421875
    X21  R2  -0.156836032867431640625
    X21  R3  -0.0405965484678745269775390625
    X21  R4  0.3014134466648101806640625
    X21  R5  -0.08118079602718353271484375
    X21  R6  0.115898020565509796142578125
    X21  R7  0.065884478390216827392578125
    X21  R8  0.0350584648549556732177734375
    X21  R9  -0.23505215346813201904296875
    X21  R10  0.097828604280948638916015625
    X21  R11  0.22674453258514404296875
    X21  R12  0.10329888761043548583984375
    X21  R13  0.252619087696075439453125
    X21  R14  -0.271371066570281982421875
    X21  R15  -0.464981377124786376953125
    X21  R16  0.077492453157901763916015625
    X21  R17  -0.02469993941485881805419921875
    X21  R18  0.15570415556430816650390625
    X21  R19  -0.0035728476941585540771484375
    X21  R20  -0.0845981538295745849609375
    X21  R21  -0.077614963054656982421875
    X21  R22  -0.06258313357830047607421875
    X21  R23  0.0678556859493255615234375
    X21  R24  -0.0606460459530353546142578125
    X21  R25  -0.117249429225921630859375
    X21  R26  -0.3322862088680267333984375
    X21  R27  0.12552569806575775146484375
    X21  R28  0.2594350278377532958984375
    X21  R29  0.01662462763488292694091796875
    X21  R30  -0.2617845237255096435546875
    X21  R31  -0.032619737088680267333984375
    X21  R32  -0.27596032619476318359375
    X21  R33  -0.199696600437164306640625
    X21  R34  -0.112690590322017669677734375
    X21  R35  0.1622074544429779052734375
    X21  R36  0.09891681373119354248046875
    X21  R37  0.0614579431712627410888671875
    X21  R38  0.106436811387538909912109375
    X21  R39  -0.23390032351016998291015625
    X21  R40  0.363308727741241455078125
    X21  R41  -0.179081976413726806640625
    X21  R42  0.18175713717937469482421875
    X21  R43  0.3523297607898712158203125
    X21  R44  -0.3372608125209808349609375
    X21  R45  -0.287201941013336181640625
    X21  R46  -0.064419262111186981201171875
    X21  R47  -0.088881991803646087646484375
    X21  R48  -0.2576673924922943115234375
    X21  R49  -0.099878571927547454833984375
    X21  R50  -0.2610691487789154052734375
    X21  R51  0.01618648506700992584228515625
    X21  R52  0.1410211026668548583984375
    X21  R53  0.27648198604583740234375
    X21  R54  0.698512732982635498046875
    X21  R55  0.23196065425872802734375
    X21  R56  0.38348293304443359375
    X21  R57  0.1519755423069000244140625
    X21  R58  0.13169698417186737060546875
    X21  R59  -0.563163101673126220703125
    X21  R60  -0.338859975337982177734375
    X21  R61  -0.0552976131439208984375
    X21  R62  0.1778611242771148681640625
    X21  R63  0.078901790082454681396484375
    X21  R64  -0.126965820789337158203125
    X21  R65  -0.0398649759590625762939453125
    X21  R66  0.3434139788150787353515625
    X21  R67  -0.038377381861209869384765625
    X21  R68  -0.098666168749332427978515625
    X21  R69  -0.3291909396648406982421875
    X21  R70  -0.2900548875331878662109375
    X21  R71  0.12000821530818939208984375
    X21  R72  0.1776580810546875
    X21  R73  -0.11618654429912567138671875
    X21  R74  -0.16527354717254638671875
    X21  R75  0.177992165088653564453125
    X21  R76  -0.153032243251800537109375
    X21  R77  -0.091364391148090362548828125
    X21  R78  -0.09552688896656036376953125
    X21  R79  0.359311282634735107421875
    X21  R80  -0.100586228072643280029296875
    X21  R81  -0.066953711211681365966796875
    X21  R82  -0.078425228595733642578125
    X21  R83  0.1249668598175048828125
    X21  R84  0.080557100474834442138671875
    X21  R85  0.0083376951515674591064453125
    X21  R86  0.15125773847103118896484375
    X21  R87  0.23354826867580413818359375
    X21  R88  -0.0491913221776485443115234375
    X21  R89  -0.072394452989101409912109375
    X21  R90  0.08176910877227783203125
    X21  R91  0.0615830533206462860107421875
    X21  R92  0.068273149430751800537109375
    X21  R93  -0.1643901169300079345703125
    X21  R94  0.1264196336269378662109375
    X21  R95  0.0539213903248310089111328125
    X21  R96  -0.3088486194610595703125
    X21  R97  0.094220466911792755126953125
    X21  R98  0.23505415022373199462890625
    X21  R99  -0.035844020545482635498046875
    X21  R100  -0.2187267243862152099609375
    X21  R101  -0.159397661685943603515625
    X21  R102  0.3455151021480560302734375
    X21  R103  0.4691579341888427734375
    X21  R104  -0.2157221138477325439453125
    X21  R105  0.4353849887847900390625
    X21  R106  0.19998610019683837890625
    X21  R107  -0.3850319385528564453125
    X21  R108  -0.2958430349826812744140625
    X21  R109  0.1795515120029449462890625
    X21  R110  -0.2359964847564697265625
    X21  R111  -0.19098292291164398193359375
    X21  R112  0.1134014427661895751953125
    X21  R113  -0.10520114004611968994140625
    X21  R114  -0.0481767691671848297119140625
    X21  R115  0.0643374919891357421875
    X21  R116  -0.021496735513210296630859375
    X21  R117  -0.24888591468334197998046875
    X21  R118  0.101027481257915496826171875
    X21  R119  0.22762401401996612548828125
    X21  R120  0.1441557705402374267578125
    X21  R121  0.0262599475681781768798828125
    X21  R122  -0.13135780394077301025390625
    X21  R123  0.17416918277740478515625
    X21  R124  -0.0403961651027202606201171875
    X21  R125  0.014007222838699817657470703125
    X21  R126  0.111294209957122802734375
    X21  R127  0.09771011769771575927734375
    X22  COST  0
    X22  R0  0.088412828743457794189453125
    X22  R1  0.001708573545329272747039794921875
    X22  R2  0.3416099846363067626953125
    X22  R3  0.066139094531536102294921875
    X22  R4  -0.2561140358448028564453125
    X22  R5  -0.08227933943271636962890625
    X22  R6  -0.070677496492862701416015625
    X22  R7  -0.13318157196044921875
    X22  R8  -0.20793090760707855224609375
    X22  R9  -0.0011617098934948444366455078125
    X22  R10  -0.1023043692111968994140625
    X22  R11  -0.3767054975032806396484375
    X22  R12  0.113856323063373565673828125
    X22  R13  -0.3246865570545196533203125
    X22  R14  -0.1818299591541290283203125
    X22  R15  0.277210891246795654296875
    X22  R16  0.090482927858829498291015625
    X22  R17  -0.117844559252262115478515625
    X22  R18  0.0161848329007625579833984375
    X22  R19  0.108827166259288787841796875
    X22  R20  0.13695944845676422119140625
    X22  R21  -0.1699435412883758544921875
    X22  R22  -0.082563437521457672119140625
    X22  R23  0.17373754084110260009765625
    X22  R24  -0.01282604224979877471923828125
    X22  R25  0.1472983658313751220703125
    X22  R26  0.1475969254970550537109375
    X22  R27  -0.1907170712947845458984375
    X22  R28  -0.3219126164913177490234375
    X22  R29  0.20973622798919677734375
    X22  R30  -0.3043383061885833740234375
    X22  R31  0.0740816891193389892578125
    X22  R32  -0.50032055377960205078125
    X22  R33  0.102320484817028045654296875
    X22  R34  -0.1459068953990936279296875
    X22  R35  -0.008906804956495761871337890625
    X22  R36  0.15312950313091278076171875
    X22  R37  -0.14604771137237548828125
    X22  R38  -0.22872804105281829833984375
    X22  R39  -0.21936953067779541015625
    X22  R40  0.0058542736805975437164306640625
    X22  R41  0.114535965025424957275390625
    X22  R42  -0.069059900939464569091796875
    X22  R43  0.0154557116329669952392578125
    X22  R44  -0.0755691230297088623046875
    X22  R45  -0.0834197998046875
    X22  R46  -0.15244658291339874267578125
    X22  R47  -0.19264508783817291259765625
    X22  R48  0.055242560803890228271484375
    X22  R49  -0.02377191744744777679443359375
    X22  R50  -0.13138498365879058837890625
    X22  R51  0.2163823544979095458984375
    X22  R52  -0.1489803791046142578125
    X22  R53  -0.23733653128147125244140625
    X22  R54  -0.206644356250762939453125
    X22  R55  0.0349716134369373321533203125
    X22  R56  -0.0105027742683887481689453125
    X22  R57  0.0437689758837223052978515625
    X22  R58  0.002383324317634105682373046875
    X22  R59  0.09159980714321136474609375
    X22  R60  -0.0181395709514617919921875
    X22  R61  -0.14408235251903533935546875
    X22  R62  -0.24810452759265899658203125
    X22  R63  0.0516917668282985687255859375
    X22  R64  -0.07458560168743133544921875
    X22  R65  -0.0875888168811798095703125
    X22  R66  -0.102629445493221282958984375
    X22  R67  -0.0028523518703877925872802734375
    X22  R68  0.0957356393337249755859375
    X22  R69  -0.082831539213657379150390625
    X22  R70  -0.0358840487897396087646484375
    X22  R71  0.04266287386417388916015625
    X22  R72  -0.1186170876026153564453125
    X22  R73  -0.086568810045719146728515625
    X22  R74  -0.02523624897003173828125
    X22  R75  -0.07415963709354400634765625
    X22  R76  -0.01585368625819683074951171875
    X22  R77  -0.193365752696990966796875
    X22  R78  0.109269045293331146240234375
    X22  R79  -0.18766190111637115478515625
    X22  R80  -0.190191745758056640625
    X22  R81  -0.01529766619205474853515625
    X22  R82  -0.2090440690517425537109375
    X22  R83  -0.102192990481853485107421875
    X22  R84  -0.1525027453899383544921875
    X22  R85  0.20626793801784515380859375
    X22  R86  -0.23889137804508209228515625
    X22  R87  -0.12923713028430938720703125
    X22  R88  -0.20793364942073822021484375
    X22  R89  -0.4065160453319549560546875
    X22  R90  0.19032560288906097412109375
    X22  R91  -0.1902467906475067138671875
    X22  R92  0.3114549815654754638671875
    X22  R93  0.1644845306873321533203125
    X22  R94  0.1699281632900238037109375
    X22  R95  -0.19332484900951385498046875
    X22  R96  0.117602147161960601806640625
    X22  R97  -0.078836672008037567138671875
    X22  R98  0.0512679778039455413818359375
    X22  R99  0.20019626617431640625
    X22  R100  -0.14626009762287139892578125
    X22  R101  0.2263515889644622802734375
    X22  R102  -0.19502396881580352783203125
    X22  R103  -0.1010246574878692626953125
    X22  R104  -0.006951756775379180908203125
    X22  R105  -0.22424219548702239990234375
    X22  R106  0.08726787567138671875
    X22  R107  0.02775601111352443695068359375
    X22  R108  -0.1451969444751739501953125
    X22  R109  -0.048120819032192230224609375
    X22  R110  -0.3500694334506988525390625
    X22  R111  -0.37805831432342529296875
    X22  R112  0.019799984991550445556640625
    X22  R113  -0.10110224783420562744140625
    X22  R114  -0.115065284073352813720703125
    X22  R115  -0.082644768059253692626953125
    X22  R116  -0.2083098590373992919921875
    X22  R117  -0.06294380128383636474609375
    X22  R118  0.014315073378384113311767578125
    X22  R119  -0.21417485177516937255859375
    X22  R120  0.0426869802176952362060546875
    X22  R121  -0.0517239756882190704345703125
    X22  R122  -0.095760293304920196533203125
    X22  R123  0.1250786483287811279296875
    X22  R124  -0.044116102159023284912109375
    X22  R125  -0.0335136540234088897705078125
    X22  R126  0.16191811859607696533203125
    X22  R127  0.2720585763454437255859375
    X23  COST  0
    X23  R0  0.0198310650885105133056640625
    X23  R1  -0.01629083417356014251708984375
    X23  R2  0.005177359096705913543701171875
    X23  R3  0.0578884594142436981201171875
    X23  R4  0.62994086742401123046875
    X23  R5  0.21087272465229034423828125
    X23  R6  0.23318569362163543701171875
    X23  R7  0.2595633566379547119140625
    X23  R8  0.21430923044681549072265625
    X23  R9  0.080409787595272064208984375
    X23  R10  -0.064219169318675994873046875
    X23  R11  0.00221386365592479705810546875
    X23  R12  0.0611005388200283050537109375
    X23  R13  0.254532396793365478515625
    X23  R14  0.361991465091705322265625
    X23  R15  0.14759059250354766845703125
    X23  R16  -0.15347947180271148681640625
    X23  R17  -0.08454664051532745361328125
    X23  R18  0.00592269562184810638427734375
    X23  R19  0.16052667796611785888671875
    X23  R20  -0.03011267073452472686767578125
    X23  R21  -0.01623717881739139556884765625
    X23  R22  0.24916188418865203857421875
    X23  R23  -0.061790607869625091552734375
    X23  R24  -0.16352729499340057373046875
    X23  R25  0.109583161771297454833984375
    X23  R26  0.17146773636341094970703125
    X23  R27  0.23179675638675689697265625
    X23  R28  0.20489253103733062744140625
    X23  R29  -0.18690712749958038330078125
    X23  R30  0.2083559334278106689453125
    X23  R31  0.1241633594036102294921875
    X23  R32  -0.16257642209529876708984375
    X23  R33  0.019465140998363494873046875
    X23  R34  0.087525568902492523193359375
    X23  R35  0.1375291049480438232421875
    X23  R36  -0.2688832581043243408203125
    X23  R37  -0.00163390929810702800750732421875
    X23  R38  -0.101632781326770782470703125
    X23  R39  0.1186627447605133056640625
    X23  R40  -0.115842543542385101318359375
    X23  R41  0.070837534964084625244140625
    X23  R42  0.19240653514862060546875
    X23  R43  0.2758353650569915771484375
    X23  R44  -0.2788424193859100341796875
    X23  R45  0.098930299282073974609375
    X23  R46  -0.3131236732006072998046875
    X23  R47  -0.0834101736545562744140625
    X23  R48  0.15779881179332733154296875
    X23  R49  -0.0331641025841236114501953125
    X23  R50  0.20547322928905487060546875
    X23  R51  -0.42447340488433837890625
    X23  R52  0.22352962195873260498046875
    X23  R53  0.270759761333465576171875
    X23  R54  0.27481496334075927734375
    X23  R55  -0.064591683447360992431640625
    X23  R56  0.13856220245361328125
    X23  R57  0.02633829414844512939453125
    X23  R58  0.1245954334735870361328125
    X23  R59  -0.2315267026424407958984375
    X23  R60  0.111167542636394500732421875
    X23  R61  0.090027637779712677001953125
    X23  R62  0.2958650887012481689453125
    X23  R63  0.09713126718997955322265625
    X23  R64  0.1084163188934326171875
    X23  R65  0.298877894878387451171875
    X23  R66  -0.079528920352458953857421875
    X23  R67  0.4633859694004058837890625
    X23  R68  -0.03946845233440399169921875
    X23  R69  -0.12940327823162078857421875
    X23  R70  0.077637217938899993896484375
    X23  R71  0.068089611828327178955078125
    X23  R72  -0.0376655198633670806884765625
    X23  R73  0.0223588682711124420166015625
    X23  R74  0.0807292461395263671875
    X23  R75  0.0390430204570293426513671875
    X23  R76  0.077657543122768402099609375
    X23  R77  0.19488589465618133544921875
    X23  R78  0.20936588943004608154296875
    X23  R79  0.302324116230010986328125
    X23  R80  -0.085424639284610748291015625
    X23  R81  0.176403522491455078125
    X23  R82  -0.081932313740253448486328125
    X23  R83  0.124905161559581756591796875
    X23  R84  0.202622234821319580078125
    X23  R85  0.124395377933979034423828125
    X23  R86  0.112586356699466705322265625
    X23  R87  0.23514400422573089599609375
    X23  R88  0.4657473266124725341796875
    X23  R89  0.09291987121105194091796875
    X23  R90  0.23696921765804290771484375
    X23  R91  -0.031048573553562164306640625
    X23  R92  -0.0330201424658298492431640625
    X23  R93  -0.042078860104084014892578125
    X23  R94  -0.00380993657745420932769775390625
    X23  R95  0.05531717836856842041015625
    X23  R96  0.2609421312808990478515625
    X23  R97  0.22780837118625640869140625
    X23  R98  0.009593061171472072601318359375
    X23  R99  0.12439729273319244384765625
    X23  R100  0.287257671356201171875
    X23  R101  0.02174855768680572509765625
    X23  R102  0.0043009645305573940277099609375
    X23  R103  0.2616753280162811279296875
    X23  R104  0.02832789905369281768798828125
    X23  R105  0.119739301502704620361328125
    X23  R106  0.255714595317840576171875
    X23  R107  -0.0040659871883690357208251953125
    X23  R108  0.125056087970733642578125
    X23  R109  0.3083305060863494873046875
    X23  R110  0.14446283876895904541015625
    X23  R111  -0.1674869358539581298828125
    X23  R112  0.1327757537364959716796875
    X23  R113  -0.03027621470391750335693359375
    X23  R114  0.21757733821868896484375
    X23  R115  0.30060482025146484375
    X23  R116  0.4208563268184661865234375
    X23  R117  0.288847446441650390625
    X23  R118  0.507534444332122802734375
    X23  R119  0.31006038188934326171875
    X23  R120  -0.01451641507446765899658203125
    X23  R121  0.19013236463069915771484375
    X23  R122  0.114846520125865936279296875
    X23  R123  0.23671527206897735595703125
    X23  R124  0.102019004523754119873046875
    X23  R125  0.022907674312591552734375
    X23  R126  0.129405319690704345703125
    X23  R127  0.1404873430728912353515625
    X24  COST  0
    X24  R0  0.13175497949123382568359375
    X24  R1  -0.202634274959564208984375
    X24  R2  0.2404085695743560791015625
    X24  R3  -0.06973278522491455078125
    X24  R4  0.092109911143779754638671875
    X24  R5  0.21170051395893096923828125
    X24  R6  0.24146397411823272705078125
    X24  R7  0.140232026576995849609375
    X24  R8  0.15010555088520050048828125
    X24  R9  -0.07107590138912200927734375
    X24  R10  0.3511885106563568115234375
    X24  R11  0.093959428369998931884765625
    X24  R12  -0.17366914451122283935546875
    X24  R13  -0.086118839681148529052734375
    X24  R14  -0.0362784825265407562255859375
    X24  R15  -0.244427978992462158203125
    X24  R16  -0.084193952381610870361328125
    X24  R17  -0.117873527109622955322265625
    X24  R18  0.3213171660900115966796875
    X24  R19  -0.0395138897001743316650390625
    X24  R20  0.19828058779239654541015625
    X24  R21  0.009939950890839099884033203125
    X24  R22  -0.17835010588169097900390625
    X24  R23  -0.086265318095684051513671875
    X24  R24  -0.1675369739532470703125
    X24  R25  -0.03062850423157215118408203125
    X24  R26  0.109891064465045928955078125
    X24  R27  0.22598588466644287109375
    X24  R28  0.0514344908297061920166015625
    X24  R29  -0.15091885626316070556640625
    X24  R30  0.3598355948925018310546875
    X24  R31  -0.2293515503406524658203125
    X24  R32  0.1634304821491241455078125
    X24  R33  0.079999230802059173583984375
    X24  R34  -0.0574836544692516326904296875
    X24  R35  0.051486633718013763427734375
    X24  R36  0.00179575267247855663299560546875
    X24  R37  0.0555815212428569793701171875
    X24  R38  -0.509023010730743408203125
    X24  R39  -0.11917425692081451416015625
    X24  R40  0.0150019191205501556396484375
    X24  R41  -0.013510874472558498382568359375
    X24  R42  0.06976985931396484375
    X24  R43  -0.004676560871303081512451171875
    X24  R44  -0.0338763780891895294189453125
    X24  R45  0.09137459099292755126953125
    X24  R46  -0.3777088820934295654296875
    X24  R47  0.092938959598541259765625
    X24  R48  0.031181953847408294677734375
    X24  R49  -0.112460561096668243408203125
    X24  R50  0.2851757109165191650390625
    X24  R51  -0.434701263904571533203125
    X24  R52  0.171305239200592041015625
    X24  R53  -0.045732744038105010986328125
    X24  R54  0.0593040026724338531494140625
    X24  R55  0.2454054057598114013671875
    X24  R56  0.0728796422481536865234375
    X24  R57  -0.287237584590911865234375
    X24  R58  0.0328747592866420745849609375
    X24  R59  -0.2618410289287567138671875
    X24  R60  0.1613259017467498779296875
    X24  R61  -0.11919890344142913818359375
    X24  R62  0.082362473011016845703125
    X24  R63  -0.45543944835662841796875
    X24  R64  -0.1375689208507537841796875
    X24  R65  0.082943044602870941162109375
    X24  R66  -0.074634216725826263427734375
    X24  R67  0.12875406444072723388671875
    X24  R68  0.13384197652339935302734375
    X24  R69  -0.070523418486118316650390625
    X24  R70  0.250900924205780029296875
    X24  R71  -0.254448115825653076171875
    X24  R72  -0.1120111942291259765625
    X24  R73  -0.595193386077880859375
    X24  R74  0.052909918129444122314453125
    X24  R75  -0.085765190422534942626953125
    X24  R76  0.083451487123966217041015625
    X24  R77  0.065920315682888031005859375
    X24  R78  -0.02012050338089466094970703125
    X24  R79  0.0591662414371967315673828125
    X24  R80  -0.79266154766082763671875
    X24  R81  0.3227452337741851806640625
    X24  R82  -0.15862166881561279296875
    X24  R83  0.01869282685220241546630859375
    X24  R84  0.13251323997974395751953125
    X24  R85  -0.307011127471923828125
    X24  R86  -0.626061141490936279296875
    X24  R87  -0.2806960046291351318359375
    X24  R88  -0.02317234687507152557373046875
    X24  R89  0.20627947151660919189453125
    X24  R90  0.255619943141937255859375
    X24  R91  0.264359891414642333984375
    X24  R92  -0.1617154181003570556640625
    X24  R93  -0.08220274746417999267578125
    X24  R94  0.015187057666480541229248046875
    X24  R95  -0.1504444777965545654296875
    X24  R96  0.2950600683689117431640625
    X24  R97  0.142950475215911865234375
    X24  R98  -0.00332439481280744075775146484375
    X24  R99  -0.510096073150634765625
    X24  R100  0.2093329727649688720703125
    X24  R101  0.010032984428107738494873046875
    X24  R102  0.1927817761898040771484375
    X24  R103  0.274840176105499267578125
    X24  R104  -0.094924502074718475341796875
    X24  R105  0.112528674304485321044921875
    X24  R106  -0.1972756683826446533203125
    X24  R107  0.0196045339107513427734375
    X24  R108  -0.00820989906787872314453125
    X24  R109  0.0455236546695232391357421875
    X24  R110  0.22408349812030792236328125
    X24  R111  0.07848595082759857177734375
    X24  R112  -0.22688497602939605712890625
    X24  R113  0.09275710582733154296875
    X24  R114  0.6162974834442138671875
    X24  R115  -0.18243658542633056640625
    X24  R116  -0.311621487140655517578125
    X24  R117  -0.001826003077439963817596435546875
    X24  R118  0.3588466644287109375
    X24  R119  0.063739188015460968017578125
    X24  R120  -0.21083734929561614990234375
    X24  R121  0.033902026712894439697265625
    X24  R122  -0.005287115462124347686767578125
    X24  R123  0.19742576777935028076171875
    X24  R124  -0.16256271302700042724609375
    X24  R125  -0.348749220371246337890625
    X24  R126  0.06461615860462188720703125
    X24  R127  0.009009838104248046875
    X25  COST  0
    X25  R0  -0.0760813057422637939453125
    X25  R1  -0.09276039898395538330078125
    X25  R2  0.2357921898365020751953125
    X25  R3  0.02928231656551361083984375
    X25  R4  0.12988384068012237548828125
    X25  R5  0.19470284879207611083984375
    X25  R6  -0.1686864197254180908203125
    X25  R7  -0.13982267677783966064453125
    X25  R8  -0.010814211331307888031005859375
    X25  R9  0.0771134197711944580078125
    X25  R10  -0.013594708405435085296630859375
    X25  R11  0.2503533661365509033203125
    X25  R12  -0.0437158234417438507080078125
    X25  R13  0.387124836444854736328125
    X25  R14  -0.015273601748049259185791015625
    X25  R15  0.01563637889921665191650390625
    X25  R16  0.20679275691509246826171875
    X25  R17  0.00213367748074233531951904296875
    X25  R18  -0.075495861470699310302734375
    X25  R19  -0.0337085537612438201904296875
    X25  R20  -0.033058024942874908447265625
    X25  R21  0.04645295441150665283203125
    X25  R22  0.20632134377956390380859375
    X25  R23  0.15302814543247222900390625
    X25  R24  -0.2546685039997100830078125
    X25  R25  -0.15375824272632598876953125
    X25  R26  0.174113571643829345703125
    X25  R27  0.139635145664215087890625
    X25  R28  0.22787286341190338134765625
    X25  R29  0.13310195505619049072265625
    X25  R30  -0.072556793689727783203125
    X25  R31  0.2704911530017852783203125
    X25  R32  -0.074781544506549835205078125
    X25  R33  -0.24632823467254638671875
    X25  R34  0.066671311855316162109375
    X25  R35  -0.15519998967647552490234375
    X25  R36  -0.177033126354217529296875
    X25  R37  0.265394389629364013671875
    X25  R38  0.1525879800319671630859375
    X25  R39  0.0489262230694293975830078125
    X25  R40  0.27916324138641357421875
    X25  R41  0.06091861426830291748046875
    X25  R42  0.14028210937976837158203125
    X25  R43  -0.4352209866046905517578125
    X25  R44  0.093736030161380767822265625
    X25  R45  -0.10788214206695556640625
    X25  R46  -0.048208884894847869873046875
    X25  R47  0.55234563350677490234375
    X25  R48  -0.113599874079227447509765625
    X25  R49  -0.167041718959808349609375
    X25  R50  0.51464307308197021484375
    X25  R51  0.095671720802783966064453125
    X25  R52  0.02705410681664943695068359375
    X25  R53  -0.1030361950397491455078125
    X25  R54  -0.195131957530975341796875
    X25  R55  -0.4377634525299072265625
    X25  R56  -0.4254171848297119140625
    X25  R57  0.0584320314228534698486328125
    X25  R58  0.3288115561008453369140625
    X25  R59  0.22984771430492401123046875
    X25  R60  0.00517675466835498809814453125
    X25  R61  0.1482222080230712890625
    X25  R62  -0.147776126861572265625
    X25  R63  0.141444027423858642578125
    X25  R64  0.1018377244472503662109375
    X25  R65  0.2157585620880126953125
    X25  R66  -0.13329868018627166748046875
    X25  R67  -0.3529532253742218017578125
    X25  R68  0.195485651493072509765625
    X25  R69  -0.3827116191387176513671875
    X25  R70  -0.068633563816547393798828125
    X25  R71  0.13064749538898468017578125
    X25  R72  0.18728767335414886474609375
    X25  R73  0.4412699639797210693359375
    X25  R74  0.154056131839752197265625
    X25  R75  -0.22090683877468109130859375
    X25  R76  0.1541800796985626220703125
    X25  R77  -0.18168370425701141357421875
    X25  R78  0.2668916285037994384765625
    X25  R79  -0.20437823235988616943359375
    X25  R80  0.2698363959789276123046875
    X25  R81  0.11396072804927825927734375
    X25  R82  -0.23220233619213104248046875
    X25  R83  -0.0264619030058383941650390625
    X25  R84  0.084009088575839996337890625
    X25  R85  0.3178192675113677978515625
    X25  R86  0.364397823810577392578125
    X25  R87  -0.0322058163583278656005859375
    X25  R88  -0.10318364202976226806640625
    X25  R89  -0.123104907572269439697265625
    X25  R90  -0.093401752412319183349609375
    X25  R91  0.209480106830596923828125
    X25  R92  0.2067994773387908935546875
    X25  R93  -0.09380209445953369140625
    X25  R94  -0.24479086697101593017578125
    X25  R95  -0.105262346565723419189453125
    X25  R96  0.0258284471929073333740234375
    X25  R97  0.07144935429096221923828125
    X25  R98  -0.372330248355865478515625
    X25  R99  -0.20725063979625701904296875
    X25  R100  -0.1063049733638763427734375
    X25  R101  0.01943021453917026519775390625
    X25  R102  -0.607688724994659423828125
    X25  R103  -0.017792575061321258544921875
    X25  R104  0.05274374783039093017578125
    X25  R105  0.281259000301361083984375
    X25  R106  -0.24496297538280487060546875
    X25  R107  0.2974585592746734619140625
    X25  R108  -0.15964679419994354248046875
    X25  R109  -0.18280525505542755126953125
    X25  R110  0.17875279486179351806640625
    X25  R111  0.19265119731426239013671875
    X25  R112  0.047640621662139892578125
    X25  R113  0.23594366014003753662109375
    X25  R114  0.19990305602550506591796875
    X25  R115  -0.1046434342861175537109375
    X25  R116  -0.1372618973255157470703125
    X25  R117  -0.000748182646930217742919921875
    X25  R118  -0.0312673412263393402099609375
    X25  R119  -0.09095223248004913330078125
    X25  R120  -0.2309973537921905517578125
    X25  R121  -0.1746051013469696044921875
    X25  R122  -0.2299296855926513671875
    X25  R123  -0.4160047471523284912109375
    X25  R124  0.3052418231964111328125
    X25  R125  0.245644092559814453125
    X25  R126  -0.1013801097869873046875
    X25  R127  0.20334859192371368408203125
    X26  COST  0
    X26  R0  -0.2594192922115325927734375
    X26  R1  -0.13201551139354705810546875
    X26  R2  -0.045028217136859893798828125
    X26  R3  -0.3437440693378448486328125
    X26  R4  -0.18865646421909332275390625
    X26  R5  -0.19032166898250579833984375
    X26  R6  0.0473668314516544342041015625
    X26  R7  -0.0546199046075344085693359375
    X26  R8  0.050280310213565826416015625
    X26  R9  -0.2863481044769287109375
    X26  R10  -0.304578959941864013671875
    X26  R11  -0.464130878448486328125
    X26  R12  -0.0715111792087554931640625
    X26  R13  -0.2982495129108428955078125
    X26  R14  0.4404685199260711669921875
    X26  R15  0.1648510992527008056640625
    X26  R16  -0.068399257957935333251953125
    X26  R17  0.0360775478184223175048828125
    X26  R18  -0.07626341283321380615234375
    X26  R19  0.0642661750316619873046875
    X26  R20  0.19323740899562835693359375
    X26  R21  -0.230455696582794189453125
    X26  R22  0.17383992671966552734375
    X26  R23  0.2645133435726165771484375
    X26  R24  -0.07271099090576171875
    X26  R25  0.3173964023590087890625
    X26  R26  -0.121313512325286865234375
    X26  R27  -0.2893425524234771728515625
    X26  R28  -0.0359381921589374542236328125
    X26  R29  -0.077961742877960205078125
    X26  R30  -0.3063557147979736328125
    X26  R31  -0.23042653501033782958984375
    X26  R32  -0.2297615110874176025390625
    X26  R33  -0.015374341048300266265869140625
    X26  R34  -0.122827820479869842529296875
    X26  R35  0.2615288197994232177734375
    X26  R36  0.2732103168964385986328125
    X26  R37  0.04346306622028350830078125
    X26  R38  -0.2273423671722412109375
    X26  R39  -0.31189787387847900390625
    X26  R40  -0.13934145867824554443359375
    X26  R41  -0.3758785426616668701171875
    X26  R42  -0.125296533107757568359375
    X26  R43  0.02543938346207141876220703125
    X26  R44  0.053384266793727874755859375
    X26  R45  -0.386179745197296142578125
    X26  R46  0.22039131820201873779296875
    X26  R47  -0.108956277370452880859375
    X26  R48  -0.074755035340785980224609375
    X26  R49  0.3989382684230804443359375
    X26  R50  -0.0419348366558551788330078125
    X26  R51  -0.156076490879058837890625
    X26  R52  -0.0974947512149810791015625
    X26  R53  0.2178014814853668212890625
    X26  R54  -0.122123815119266510009765625
    X26  R55  0.15793325006961822509765625
    X26  R56  -0.23708908259868621826171875
    X26  R57  -0.0385398678481578826904296875
    X26  R58  -0.4431856572628021240234375
    X26  R59  0.21346700191497802734375
    X26  R60  -0.1024549007415771484375
    X26  R61  -0.20724521577358245849609375
    X26  R62  -0.1972613036632537841796875
    X26  R63  -0.17112557590007781982421875
    X26  R64  0.3243923187255859375
    X26  R65  0.1782445609569549560546875
    X26  R66  0.15876860916614532470703125
    X26  R67  0.000753999804146587848663330078125
    X26  R68  0.0222905538976192474365234375
    X26  R69  0.2365248501300811767578125
    X26  R70  -0.2548065483570098876953125
    X26  R71  -0.364189624786376953125
    X26  R72  -0.0918695926666259765625
    X26  R73  -0.300180137157440185546875
    X26  R74  -0.011468589305877685546875
    X26  R75  -0.10105693340301513671875
    X26  R76  -0.2498008906841278076171875
    X26  R77  -0.19870577752590179443359375
    X26  R78  -0.06364111602306365966796875
    X26  R79  -0.23589269816875457763671875
    X26  R80  -0.2925187051296234130859375
    X26  R81  -0.163299858570098876953125
    X26  R82  -0.20815898478031158447265625
    X26  R83  -0.0584346950054168701171875
    X26  R84  -0.092106245458126068115234375
    X26  R85  -0.40367639064788818359375
    X26  R86  -0.4859683513641357421875
    X26  R87  0.02817351557314395904541015625
    X26  R88  0.22331185638904571533203125
    X26  R89  -0.514454066753387451171875
    X26  R90  0.24931681156158447265625
    X26  R91  0.2196862995624542236328125
    X26  R92  -0.006821553222835063934326171875
    X26  R93  -0.2395198643207550048828125
    X26  R94  -0.11383740603923797607421875
    X26  R95  -0.109705202281475067138671875
    X26  R96  -0.18331111967563629150390625
    X26  R97  -0.2167499959468841552734375
    X26  R98  0.304103434085845947265625
    X26  R99  0.08393229544162750244140625
    X26  R100  -0.1792647540569305419921875
    X26  R101  -0.16453896462917327880859375
    X26  R102  -0.10746054351329803466796875
    X26  R103  -0.15960693359375
    X26  R104  0.04589439928531646728515625
    X26  R105  -0.36587131023406982421875
    X26  R106  -0.338317334651947021484375
    X26  R107  0.252963244915008544921875
    X26  R108  -0.258033335208892822265625
    X26  R109  0.112068958580493927001953125
    X26  R110  0.032074607908725738525390625
    X26  R111  -0.4214688837528228759765625
    X26  R112  -0.12192286550998687744140625
    X26  R113  0.0991013944149017333984375
    X26  R114  -0.06988309323787689208984375
    X26  R115  0.26645910739898681640625
    X26  R116  -0.4333772957324981689453125
    X26  R117  -0.140509784221649169921875
    X26  R118  -0.17966939508914947509765625
    X26  R119  -0.102918095886707305908203125
    X26  R120  0.284851551055908203125
    X26  R121  0.09633280336856842041015625
    X26  R122  -0.122841797769069671630859375
    X26  R123  0.050233542919158935546875
    X26  R124  -0.14186413586139678955078125
    X26  R125  -0.0539165250957012176513671875
    X26  R126  -0.055686168372631072998046875
    X26  R127  0.1466598212718963623046875
    X27  COST  0
    X27  R0  -0.05588783323764801025390625
    X27  R1  0.07566039264202117919921875
    X27  R2  0.151174962520599365234375
    X27  R3  -0.0421132929623126983642578125
    X27  R4  0.3122067153453826904296875
    X27  R5  -0.3359715044498443603515625
    X27  R6  -0.14167940616607666015625
    X27  R7  0.19088973104953765869140625
    X27  R8  -0.0325642786920070648193359375
    X27  R9  0.110664315521717071533203125
    X27  R10  0.4555942118167877197265625
    X27  R11  -0.3386953175067901611328125
    X27  R12  0.02410862036049365997314453125
    X27  R13  0.41215837001800537109375
    X27  R14  0.36746501922607421875
    X27  R15  -0.387830555438995361328125
    X27  R16  0.1283379495143890380859375
    X27  R17  -0.272908031940460205078125
    X27  R18  -0.074537016451358795166015625
    X27  R19  0.068490214645862579345703125
    X27  R20  0.17889188230037689208984375
    X27  R21  -0.050337083637714385986328125
    X27  R22  0.080571450293064117431640625
    X27  R23  -0.22167094051837921142578125
    X27  R24  0.316969811916351318359375
    X27  R25  0.23042951524257659912109375
    X27  R26  0.13390754163265228271484375
    X27  R27  -0.1996465623378753662109375
    X27  R28  0.3441602885723114013671875
    X27  R29  -0.0476248152554035186767578125
    X27  R30  0.0557627044618129730224609375
    X27  R31  -0.174594879150390625
    X27  R32  0.21967403590679168701171875
    X27  R33  -0.00753569789230823516845703125
    X27  R34  -0.302607357501983642578125
    X27  R35  0.4725558757781982421875
    X27  R36  0.1411664783954620361328125
    X27  R37  -0.123911224305629730224609375
    X27  R38  0.044339872896671295166015625
    X27  R39  0.3347893655300140380859375
    X27  R40  0.14052243530750274658203125
    X27  R41  0.0317580513656139373779296875
    X27  R42  -0.2772960364818572998046875
    X27  R43  0.302635490894317626953125
    X27  R44  -0.39794242382049560546875
    X27  R45  0.1674188077449798583984375
    X27  R46  -0.377052843570709228515625
    X27  R47  -0.0345870293676853179931640625
    X27  R48  0.09164877235889434814453125
    X27  R49  -0.3842901885509490966796875
    X27  R50  0.3377195298671722412109375
    X27  R51  -0.16124741733074188232421875
    X27  R52  0.128629028797149658203125
    X27  R53  0.100814767181873321533203125
    X27  R54  0.43538534641265869140625
    X27  R55  0.21369217336177825927734375
    X27  R56  0.050254620611667633056640625
    X27  R57  0.09547698497772216796875
    X27  R58  0.3543821871280670166015625
    X27  R59  -0.08172933757305145263671875
    X27  R60  0.24083994328975677490234375
    X27  R61  0.11608600616455078125
    X27  R62  -0.13005281984806060791015625
    X27  R63  -0.12534122169017791748046875
    X27  R64  0.23727439343929290771484375
    X27  R65  -0.081915237009525299072265625
    X27  R66  -0.20101009309291839599609375
    X27  R67  0.02313955128192901611328125
    X27  R68  -0.09127484261989593505859375
    X27  R69  -0.060170747339725494384765625
    X27  R70  0.1209099590778350830078125
    X27  R71  -0.0851621329784393310546875
    X27  R72  0.008675300516188144683837890625
    X27  R73  0.15060742199420928955078125
    X27  R74  0.077273450791835784912109375
    X27  R75  0.011336124502122402191162109375
    X27  R76  0.04651503264904022216796875
    X27  R77  0.032219588756561279296875
    X27  R78  0.0481084994971752166748046875
    X27  R79  0.21208466589450836181640625
    X27  R80  0.2184684276580810546875
    X27  R81  0.064740695059299468994140625
    X27  R82  -0.06497533619403839111328125
    X27  R83  -0.122816778719425201416015625
    X27  R84  -0.119437061250209808349609375
    X27  R85  0.334861695766448974609375
    X27  R86  -0.0729539692401885986328125
    X27  R87  -0.0701826512813568115234375
    X27  R88  0.24787223339080810546875
    X27  R89  0.19798599183559417724609375
    X27  R90  -0.16981828212738037109375
    X27  R91  -0.073299489915370941162109375
    X27  R92  0.10921148955821990966796875
    X27  R93  0.011843404732644557952880859375
    X27  R94  -0.1849526464939117431640625
    X27  R95  -0.115371964871883392333984375
    X27  R96  -0.118841469287872314453125
    X27  R97  -0.15425908565521240234375
    X27  R98  -0.21146146953105926513671875
    X27  R99  0.005530825816094875335693359375
    X27  R100  0.21650399267673492431640625
    X27  R101  0.02772089280188083648681640625
    X27  R102  0.137108862400054931640625
    X27  R103  0.02122453786432743072509765625
    X27  R104  -0.010233481414616107940673828125
    X27  R105  0.0623310618102550506591796875
    X27  R106  0.421539008617401123046875
    X27  R107  0.108572043478488922119140625
    X27  R108  0.03714621067047119140625
    X27  R109  0.105063803493976593017578125
    X27  R110  -0.02840791642665863037109375
    X27  R111  0.1706439554691314697265625
    X27  R112  0.00981550104916095733642578125
    X27  R113  0.3717913925647735595703125
    X27  R114  0.075442500412464141845703125
    X27  R115  0.1027219295501708984375
    X27  R116  -0.16446675360202789306640625
    X27  R117  0.317176640033721923828125
    X27  R118  0.59224402904510498046875
    X27  R119  -0.2897837162017822265625
    X27  R120  -0.18778730928897857666015625
    X27  R121  0.241969406604766845703125
    X27  R122  -0.18681801855564117431640625
    X27  R123  0.58981418609619140625
    X27  R124  0.36804687976837158203125
    X27  R125  0.061623096466064453125
    X27  R126  0.21062023937702178955078125
    X27  R127  0.042211115360260009765625
    X28  COST  0
    X28  R0  -0.18799521028995513916015625
    X28  R1  -0.20289911329746246337890625
    X28  R2  0.4312725365161895751953125
    X28  R3  -0.0605739690363407135009765625
    X28  R4  -0.162415802478790283203125
    X28  R5  -0.12888161838054656982421875
    X28  R6  -0.0181304998695850372314453125
    X28  R7  0.178538143634796142578125
    X28  R8  0.12885127961635589599609375
    X28  R9  -0.009655167348682880401611328125
    X28  R10  -0.13382947444915771484375
    X28  R11  -0.21501605212688446044921875
    X28  R12  0.15327893197536468505859375
    X28  R13  0.2032299041748046875
    X28  R14  -0.35629189014434814453125
    X28  R15  0.124162614345550537109375
    X28  R16  -0.2585027515888214111328125
    X28  R17  -0.10932533442974090576171875
    X28  R18  -0.018740691244602203369140625
    X28  R19  -0.01310317777097225189208984375
    X28  R20  0.0925153791904449462890625
    X28  R21  -0.079392373561859130859375
    X28  R22  0.226064622402191162109375
    X28  R23  0.0218935720622539520263671875
    X28  R24  0.089737065136432647705078125
    X28  R25  0.27134430408477783203125
    X28  R26  0.16296349465847015380859375
    X28  R27  -0.14335142076015472412109375
    X28  R28  -0.3022433221340179443359375
    X28  R29  0.013547723181545734405517578125
    X28  R30  -0.17704035341739654541015625
    X28  R31  0.325615406036376953125
    X28  R32  -0.260351717472076416015625
    X28  R33  -0.2022345066070556640625
    X28  R34  -0.3655531108379364013671875
    X28  R35  0.3822939395904541015625
    X28  R36  -0.007994142360985279083251953125
    X28  R37  -0.1732330322265625
    X28  R38  -0.066401638090610504150390625
    X28  R39  -0.0458074100315570831298828125
    X28  R40  -0.107818655669689178466796875
    X28  R41  -0.0098093338310718536376953125
    X28  R42  -0.094872765243053436279296875
    X28  R43  0.12261982262134552001953125
    X28  R44  -0.3939344882965087890625
    X28  R45  -0.0443453080952167510986328125
    X28  R46  0.12865312397480010986328125
    X28  R47  -0.5134813785552978515625
    X28  R48  0.028192996978759765625
    X28  R49  -0.070342838764190673828125
    X28  R50  0.320869863033294677734375
    X28  R51  -0.14570353925228118896484375
    X28  R52  -0.089011706411838531494140625
    X28  R53  -0.080698214471340179443359375
    X28  R54  -0.187143862247467041015625
    X28  R55  0.308677196502685546875
    X28  R56  -0.24772560596466064453125
    X28  R57  -0.054643966257572174072265625
    X28  R58  -0.106405675411224365234375
    X28  R59  -0.482445240020751953125
    X28  R60  -0.01361347921192646026611328125
    X28  R61  -0.197513103485107421875
    X28  R62  0.115458153188228607177734375
    X28  R63  -0.121953494846820831298828125
    X28  R64  0.16504724323749542236328125
    X28  R65  -0.283620893955230712890625
    X28  R66  -0.082204185426235198974609375
    X28  R67  -0.084776736795902252197265625
    X28  R68  -0.21803928911685943603515625
    X28  R69  -0.071584962308406829833984375
    X28  R70  -0.088122315704822540283203125
    X28  R71  -0.231380164623260498046875
    X28  R72  -0.181827723979949951171875
    X28  R73  0.171660244464874267578125
    X28  R74  -0.1967918574810028076171875
    X28  R75  -0.2666530311107635498046875
    X28  R76  -0.150273740291595458984375
    X28  R77  -0.122193805873394012451171875
    X28  R78  0.0308697037398815155029296875
    X28  R79  0.02297558076679706573486328125
    X28  R80  -0.02638051472604274749755859375
    X28  R81  -0.0294146127998828887939453125
    X28  R82  -0.16032738983631134033203125
    X28  R83  -0.0075529809109866619110107421875
    X28  R84  0.06697003543376922607421875
    X28  R85  -0.097407601773738861083984375
    X28  R86  -0.0230703167617321014404296875
    X28  R87  0.039293445646762847900390625
    X28  R88  -0.098816685378551483154296875
    X28  R89  -0.3371708691120147705078125
    X28  R90  0.009558864869177341461181640625
    X28  R91  0.24040126800537109375
    X28  R92  -0.1713093817234039306640625
    X28  R93  0.052268318831920623779296875
    X28  R94  0.126522362232208251953125
    X28  R95  -0.08816723525524139404296875
    X28  R96  -0.1620322167873382568359375
    X28  R97  0.16457174718379974365234375
    X28  R98  -0.18301451206207275390625
    X28  R99  -0.15338675677776336669921875
    X28  R100  0.02043155394494533538818359375
    X28  R101  0.2047369480133056640625
    X28  R102  0.02363648079335689544677734375
    X28  R103  -0.084766514599323272705078125
    X28  R104  -0.22161924839019775390625
    X28  R105  -0.2774401009082794189453125
    X28  R106  -0.21781407296657562255859375
    X28  R107  0.3103216588497161865234375
    X28  R108  -0.0696882307529449462890625
    X28  R109  -0.0229780413210391998291015625
    X28  R110  0.008583276532590389251708984375
    X28  R111  -0.062470652163028717041015625
    X28  R112  -0.2002963125705718994140625
    X28  R113  -0.208975732326507568359375
    X28  R114  -0.0437363721430301666259765625
    X28  R115  -0.047966040670871734619140625
    X28  R116  -0.3024843633174896240234375
    X28  R117  -0.00249388930387794971466064453125
    X28  R118  0.09871633350849151611328125
    X28  R119  0.1444454491138458251953125
    X28  R120  0.143702685832977294921875
    X28  R121  -0.008735821582376956939697265625
    X28  R122  -0.2494489848613739013671875
    X28  R123  -0.410679757595062255859375
    X28  R124  -0.102624170482158660888671875
    X28  R125  0.0477034933865070343017578125
    X28  R126  -0.08116875588893890380859375
    X28  R127  -0.0204618871212005615234375
    X29  COST  0
    X29  R0  -0.0694669187068939208984375
    X29  R1  -0.13346175849437713623046875
    X29  R2  0.01058457605540752410888671875
    X29  R3  -0.2573848068714141845703125
    X29  R4  0.118592329323291778564453125
    X29  R5  0.0561405457556247711181640625
    X29  R6  0.08304266631603240966796875
    X29  R7  0.12255598604679107666015625
    X29  R8  -0.012308262288570404052734375
    X29  R9  -0.2348086833953857421875
    X29  R10  0.24931530654430389404296875
    X29  R11  0.0549025796353816986083984375
    X29  R12  -0.07680332660675048828125
    X29  R13  0.14626820385456085205078125
    X29  R14  -0.123029612004756927490234375
    X29  R15  0.17748640477657318115234375
    X29  R16  0.07683241367340087890625
    X29  R17  0.12622644007205963134765625
    X29  R18  -0.09642811119556427001953125
    X29  R19  -0.101044602692127227783203125
    X29  R20  0.11956889927387237548828125
    X29  R21  -0.031711257994174957275390625
    X29  R22  -0.097067534923553466796875
    X29  R23  -0.02792380191385746002197265625
    X29  R24  -0.34064209461212158203125
    X29  R25  0.3000648319721221923828125
    X29  R26  -0.1117257773876190185546875
    X29  R27  0.01063098199665546417236328125
    X29  R28  -0.104912824928760528564453125
    X29  R29  0.1179108321666717529296875
    X29  R30  -0.05102889239788055419921875
    X29  R31  -0.124521069228649139404296875
    X29  R32  -0.48662936687469482421875
    X29  R33  0.0420322306454181671142578125
    X29  R34  -0.115613423287868499755859375
    X29  R35  -0.14016763865947723388671875
    X29  R36  -0.16913950443267822265625
    X29  R37  -0.2340045273303985595703125
    X29  R38  -0.2523212134838104248046875
    X29  R39  -0.02676062099635601043701171875
    X29  R40  -0.093131244182586669921875
    X29  R41  -0.1621868908405303955078125
    X29  R42  0.02953359298408031463623046875
    X29  R43  0.05798248946666717529296875
    X29  R44  -0.24023254215717315673828125
    X29  R45  -0.2474152743816375732421875
    X29  R46  -0.3970977962017059326171875
    X29  R47  0.0467318594455718994140625
    X29  R48  -0.0197514779865741729736328125
    X29  R49  -0.094125635921955108642578125
    X29  R50  -0.66813242435455322265625
    X29  R51  -0.2277679145336151123046875
    X29  R52  -0.1818949282169342041015625
    X29  R53  -0.1756398975849151611328125
    X29  R54  0.15051114559173583984375
    X29  R55  0.109761185944080352783203125
    X29  R56  0.058808334171772003173828125
    X29  R57  -0.03020912222564220428466796875
    X29  R58  0.2652841508388519287109375
    X29  R59  -0.2675847709178924560546875
    X29  R60  0.083647422492504119873046875
    X29  R61  -0.15122206509113311767578125
    X29  R62  0.01584034971892833709716796875
    X29  R63  -0.1168514788150787353515625
    X29  R64  -0.21937429904937744140625
    X29  R65  -0.104051835834980010986328125
    X29  R66  -0.2037842273712158203125
    X29  R67  -0.162232816219329833984375
    X29  R68  0.078242562711238861083984375
    X29  R69  0.4366275370121002197265625
    X29  R70  -0.272463858127593994140625
    X29  R71  -0.0068903602659702301025390625
    X29  R72  0.108184121549129486083984375
    X29  R73  0.00829240493476390838623046875
    X29  R74  -0.106207840144634246826171875
    X29  R75  -0.2280667722225189208984375
    X29  R76  -0.369474887847900390625
    X29  R77  -0.4321344792842864990234375
    X29  R78  -0.4266701638698577880859375
    X29  R79  0.0122931413352489471435546875
    X29  R80  0.64707434177398681640625
    X29  R81  0.077219240367412567138671875
    X29  R82  0.3064086735248565673828125
    X29  R83  -0.1366862952709197998046875
    X29  R84  -0.03545917570590972900390625
    X29  R85  -0.586455881595611572265625
    X29  R86  0.0061962162144482135772705078125
    X29  R87  0.202876865863800048828125
    X29  R88  0.00294723152182996273040771484375
    X29  R89  -0.140848577022552490234375
    X29  R90  -0.036724627017974853515625
    X29  R91  -0.3360241949558258056640625
    X29  R92  -0.43773519992828369140625
    X29  R93  -0.0387798584997653961181640625
    X29  R94  -0.15155713260173797607421875
    X29  R95  0.12004841864109039306640625
    X29  R96  0.1360912322998046875
    X29  R97  -0.0573714785277843475341796875
    X29  R98  0.2276994884014129638671875
    X29  R99  0.107638657093048095703125
    X29  R100  -0.23918163776397705078125
    X29  R101  -0.04463844001293182373046875
    X29  R102  0.048506356775760650634765625
    X29  R103  0.1703045070171356201171875
    X29  R104  -0.1433770656585693359375
    X29  R105  -0.17220093309879302978515625
    X29  R106  0.06801225244998931884765625
    X29  R107  0.017288200557231903076171875
    X29  R108  -0.24888403713703155517578125
    X29  R109  0.087636314332485198974609375
    X29  R110  -0.13463409245014190673828125
    X29  R111  -0.2283490598201751708984375
    X29  R112  0.1710402667522430419921875
    X29  R113  0.0400013215839862823486328125
    X29  R114  -0.09323282539844512939453125
    X29  R115  0.06954421103000640869140625
    X29  R116  -0.0479698665440082550048828125
    X29  R117  0.2270393669605255126953125
    X29  R118  -0.01930819451808929443359375
    X29  R119  -0.136386096477508544921875
    X29  R120  -0.17998789250850677490234375
    X29  R121  0.03863430023193359375
    X29  R122  0.0314795635640621185302734375
    X29  R123  0.08344733715057373046875
    X29  R124  -0.429148018360137939453125
    X29  R125  0.1382245719432830810546875
    X29  R126  -0.20349933207035064697265625
    X29  R127  0.068519055843353271484375
    X30  COST  0
    X30  R0  -1
    X30  R128  -1
    X30  R129  -1
    X31  COST  0
    X31  R1  -1
    X31  R131  -1
    X31  R132  -1
    X32  COST  0
    X32  R2  -1
    X32  R134  -1
    X32  R135  -1
    X33  COST  0
    X33  R3  -1
    X33  R137  -1
    X33  R138  -1
    X34  COST  0
    X34  R4  -1
    X34  R140  -1
    X34  R141  -1
    X35  COST  0
    X35  R5  -1
    X35  R143  -1
    X35  R144  -1
    X36  COST  0
    X36  R6  -1
    X36  R146  -1
    X36  R147  -1
    X37  COST  0
    X37  R7  -1
    X37  R149  -1
    X37  R150  -1
    X38  COST  0
    X38  R8  -1
    X38  R152  -1
    X38  R153  -1
    X39  COST  0
    X39  R9  -1
    X39  R464  0.0525035597383975982666015625
    X39  R465  -0.401346504688262939453125
    X40  COST  0
    X40  R10  -1
    X40  R155  -1
    X40  R156  -1
    X41  COST  0
    X41  R11  -1
    X41  R158  -1
    X41  R159  -1
    X42  COST  0
    X42  R12  -1
    X42  R161  -1
    X42  R162  -1
    X43  COST  0
    X43  R13  -1
    X43  R164  -1
    X43  R165  -1
    X44  COST  0
    X44  R14  -1
    X44  R167  -1
    X44  R168  -1
    X45  COST  0
    X45  R15  -1
    X45  R170  -1
    X45  R171  -1
    X46  COST  0
    X46  R16  -1
    X46  R173  -1
    X46  R174  -1
    X47  COST  0
    X47  R17  -1
    X47  R176  -1
    X47  R177  -1
    X48  COST  0
    X48  R18  -1
    X48  R179  -1
    X48  R180  -1
    X49  COST  0
    X49  R19  -1
    X49  R464  0.2197148799896240234375
    X49  R465  -0.342225551605224609375
    X50  COST  0
    X50  R20  -1
    X50  R182  -1
    X50  R183  -1
    X51  COST  0
    X51  R21  -1
    X51  R464  0.3655396401882171630859375
    X51  R465  -0.0281462967395782470703125
    X52  COST  0
    X52  R22  -1
    X52  R185  -1
    X52  R186  -1
    X53  COST  0
    X53  R23  -1
    X53  R188  -1
    X53  R189  -1
    X54  COST  0
    X54  R24  -1
    X54  R191  -1
    X54  R192  -1
    X55  COST  0
    X55  R25  -1
    X55  R194  -1
    X55  R195  -1
    X56  COST  0
    X56  R26  -1
    X56  R197  -1
    X56  R198  -1
    X57  COST  0
    X57  R27  -1
    X57  R200  -1
    X57  R201  -1
    X58  COST  0
    X58  R28  -1
    X58  R203  -1
    X58  R204  -1
    X59  COST  0
    X59  R29  -1
    X59  R206  -1
    X59  R207  -1
    X60  COST  0
    X60  R30  -1
    X60  R209  -1
    X60  R210  -1
    X61  COST  0
    X61  R31  -1
    X61  R212  -1
    X61  R213  -1
    X62  COST  0
    X62  R32  -1
    X62  R215  -1
    X62  R216  -1
    X63  COST  0
    X63  R33  -1
    X63  R464  0.244366228580474853515625
    X63  R465  -0.19383426010608673095703125
    X64  COST  0
    X64  R34  -1
    X64  R218  -1
    X64  R219  -1
    X65  COST  0
    X65  R35  -1
    X65  R221  -1
    X65  R222  -1
    X66  COST  0
    X66  R36  -1
    X66  R224  -1
    X66  R225  -1
    X67  COST  0
    X67  R37  -1
    X67  R227  -1
    X67  R228  -1
    X68  COST  0
    X68  R38  -1
    X68  R230  -1
    X68  R231  -1
    X69  COST  0
    X69  R39  -1
    X69  R233  -1
    X69  R234  -1
    X70  COST  0
    X70  R40  -1
    X70  R236  -1
    X70  R237  -1
    X71  COST  0
    X71  R41  -1
    X71  R464  0.371047317981719970703125
    X71  R465  -0.341372787952423095703125
    X72  COST  0
    X72  R42  -1
    X72  R239  -1
    X72  R240  -1
    X73  COST  0
    X73  R43  -1
    X73  R242  -1
    X73  R243  -1
    X74  COST  0
    X74  R44  -1
    X74  R245  -1
    X74  R246  -1
    X75  COST  0
    X75  R45  -1
    X75  R248  -1
    X75  R249  -1
    X76  COST  0
    X76  R46  -1
    X76  R464  0.4688266217708587646484375
    X76  R465  -0.14345662295818328857421875
    X77  COST  0
    X77  R47  -1
    X77  R251  -1
    X77  R252  -1
    X78  COST  0
    X78  R48  -1
    X78  R464  0.090173639357089996337890625
    X78  R465  -0.338331520557403564453125
    X79  COST  0
    X79  R49  -1
    X79  R254  -1
    X79  R255  -1
    X80  COST  0
    X80  R50  -1
    X80  R257  -1
    X80  R258  -1
    X81  COST  0
    X81  R51  -1
    X81  R260  -1
    X81  R261  -1
    X82  COST  0
    X82  R52  -1
    X82  R263  -1
    X82  R264  -1
    X83  COST  0
    X83  R53  -1
    X83  R266  -1
    X83  R267  -1
    X84  COST  0
    X84  R54  -1
    X84  R269  -1
    X84  R270  -1
    X85  COST  0
    X85  R55  -1
    X85  R272  -1
    X85  R273  -1
    X86  COST  0
    X86  R56  -1
    X86  R275  -1
    X86  R276  -1
    X87  COST  0
    X87  R57  -1
    X87  R278  -1
    X87  R279  -1
    X88  COST  0
    X88  R58  -1
    X88  R281  -1
    X88  R282  -1
    X89  COST  0
    X89  R59  -1
    X89  R284  -1
    X89  R285  -1
    X90  COST  0
    X90  R60  -1
    X90  R287  -1
    X90  R288  -1
    X91  COST  0
    X91  R61  -1
    X91  R290  -1
    X91  R291  -1
    X92  COST  0
    X92  R62  -1
    X92  R293  -1
    X92  R294  -1
    X93  COST  0
    X93  R63  -1
    X93  R464  0.4634855687618255615234375
    X93  R465  -0.0612582974135875701904296875
    X94  COST  0
    X94  R64  -1
    X94  R296  -1
    X94  R297  -1
    X95  COST  0
    X95  R65  -1
    X95  R299  -1
    X95  R300  -1
    X96  COST  0
    X96  R66  -1
    X96  R302  -1
    X96  R303  -1
    X97  COST  0
    X97  R67  -1
    X97  R305  -1
    X97  R306  -1
    X98  COST  0
    X98  R68  -1
    X98  R308  -1
    X98  R309  -1
    X99  COST  0
    X99  R69  -1
    X99  R311  -1
    X99  R312  -1
    X100  COST  0
    X100  R70  -1
    X100  R464  0.3587648868560791015625
    X100  R465  -0.144302070140838623046875
    X101  COST  0
    X101  R71  -1
    X101  R314  -1
    X101  R315  -1
    X102  COST  0
    X102  R72  -1
    X102  R317  -1
    X102  R318  -1
    X103  COST  0
    X103  R73  -1
    X103  R320  -1
    X103  R321  -1
    X104  COST  0
    X104  R74  -1
    X104  R323  -1
    X104  R324  -1
    X105  COST  0
    X105  R75  -1
    X105  R326  -1
    X105  R327  -1
    X106  COST  0
    X106  R76  -1
    X106  R329  -1
    X106  R330  -1
    X107  COST  0
    X107  R77  -1
    X107  R332  -1
    X107  R333  -1
    X108  COST  0
    X108  R78  -1
    X108  R464  0.4280128777027130126953125
    X108  R465  -0.320054471492767333984375
    X109  COST  0
    X109  R79  -1
    X109  R335  -1
    X109  R336  -1
    X110  COST  0
    X110  R80  -1
    X110  R338  -1
    X110  R339  -1
    X111  COST  0
    X111  R81  -1
    X111  R341  -1
    X111  R342  -1
    X112  COST  0
    X112  R82  -1
    X112  R344  -1
    X112  R345  -1
    X113  COST  0
    X113  R83  -1
    X113  R347  -1
    X113  R348  -1
    X114  COST  0
    X114  R84  -1
    X114  R350  -1
    X114  R351  -1
    X115  COST  0
    X115  R85  -1
    X115  R464  0.430583059787750244140625
    X115  R465  -0.4644226133823394775390625
    X116  COST  0
    X116  R86  -1
    X116  R353  -1
    X116  R354  -1
    X117  COST  0
    X117  R87  -1
    X117  R356  -1
    X117  R357  -1
    X118  COST  0
    X118  R88  -1
    X118  R359  -1
    X118  R360  -1
    X119  COST  0
    X119  R89  -1
    X119  R362  -1
    X119  R363  -1
    X120  COST  0
    X120  R90  -1
    X120  R365  -1
    X120  R366  -1
    X121  COST  0
    X121  R91  -1
    X121  R368  -1
    X121  R369  -1
    X122  COST  0
    X122  R92  -1
    X122  R371  -1
    X122  R372  -1
    X123  COST  0
    X123  R93  -1
    X123  R464  0.27923691272735595703125
    X123  R465  -0.2851531505584716796875
    X124  COST  0
    X124  R94  -1
    X124  R374  -1
    X124  R375  -1
    X125  COST  0
    X125  R95  -1
    X125  R377  -1
    X125  R378  -1
    X126  COST  0
    X126  R96  -1
    X126  R380  -1
    X126  R381  -1
    X127  COST  0
    X127  R97  -1
    X127  R383  -1
    X127  R384  -1
    X128  COST  0
    X128  R98  -1
    X128  R386  -1
    X128  R387  -1
    X129  COST  0
    X129  R99  -1
    X129  R464  0.413319766521453857421875
    X129  R465  -0.403350770473480224609375
    X130  COST  0
    X130  R100  -1
    X130  R464  0.24381862580776214599609375
    X130  R465  -0.2222085297107696533203125
    X131  COST  0
    X131  R101  -1
    X131  R389  -1
    X131  R390  -1
    X132  COST  0
    X132  R102  -1
    X132  R392  -1
    X132  R393  -1
    X133  COST  0
    X133  R103  -1
    X133  R395  -1
    X133  R396  -1
    X134  COST  0
    X134  R104  -1
    X134  R398  -1
    X134  R399  -1
    X135  COST  0
    X135  R105  -1
    X136  COST  0
    X136  R106  -1
    X136  R401  -1
    X136  R402  -1
    X137  COST  0
    X137  R107  -1
    X137  R404  -1
    X137  R405  -1
    X138  COST  0
    X138  R108  -1
    X138  R407  -1
    X138  R408  -1
    X139  COST  0
    X139  R109  -1
    X139  R410  -1
    X139  R411  -1
    X140  COST  0
    X140  R110  -1
    X140  R413  -1
    X140  R414  -1
    X141  COST  0
    X141  R111  -1
    X141  R416  -1
    X141  R417  -1
    X142  COST  0
    X142  R112  -1
    X142  R419  -1
    X142  R420  -1
    X143  COST  0
    X143  R113  -1
    X143  R422  -1
    X143  R423  -1
    X144  COST  0
    X144  R114  -1
    X144  R425  -1
    X144  R426  -1
    X145  COST  0
    X145  R115  -1
    X146  COST  0
    X146  R116  -1
    X146  R428  -1
    X146  R429  -1
    X147  COST  0
    X147  R117  -1
    X147  R431  -1
    X147  R432  -1
    X148  COST  0
    X148  R118  -1
    X148  R434  -1
    X148  R435  -1
    X149  COST  0
    X149  R119  -1
    X149  R437  -1
    X149  R438  -1
    X150  COST  0
    X150  R120  -1
    X150  R440  -1
    X150  R441  -1
    X151  COST  0
    X151  R121  -1
    X151  R443  -1
    X151  R444  -1
    X152  COST  0
    X152  R122  -1
    X152  R446  -1
    X152  R447  -1
    X153  COST  0
    X153  R123  -1
    X153  R449  -1
    X153  R450  -1
    X154  COST  0
    X154  R124  -1
    X154  R452  -1
    X154  R453  -1
    X155  COST  0
    X155  R125  -1
    X155  R455  -1
    X155  R456  -1
    X156  COST  0
    X156  R126  -1
    X156  R458  -1
    X156  R459  -1
    X157  COST  0
    X157  R127  -1
    X157  R461  -1
    X157  R462  -1
    X158  COST  0
    X158  R128  1
    X158  R129  1
    X158  R130  1
    X158  R464  -0.1999981105327606201171875
    X158  R465  0.41113507747650146484375
    MARKER0000  'MARKER'  'INTORG'
    X159  COST  0
    X159  R129  0.14734323322772979736328125
    X159  R130  -0.18043349683284759521484375
    MARKER0000  'MARKER'  'INTEND'
    X160  COST  0
    X160  R131  1
    X160  R132  1
    X160  R133  1
    X160  R464  0.219770491123199462890625
    X160  R465  -0.20541132986545562744140625
    MARKER0001  'MARKER'  'INTORG'
    X161  COST  0
    X161  R132  0.088918507099151611328125
    X161  R133  -0.19197218120098114013671875
    MARKER0001  'MARKER'  'INTEND'
    X162  COST  0
    X162  R134  1
    X162  R135  1
    X162  R136  1
    X162  R464  -0.4297537505626678466796875
    X162  R465  0.2648026943206787109375
    MARKER0002  'MARKER'  'INTORG'
    X163  COST  0
    X163  R135  0.3148904740810394287109375
    X163  R136  -0.082481004297733306884765625
    MARKER0002  'MARKER'  'INTEND'
    X164  COST  0
    X164  R137  1
    X164  R138  1
    X164  R139  1
    X164  R464  0.4270192682743072509765625
    X164  R465  -0.3040120899677276611328125
    MARKER0003  'MARKER'  'INTORG'
    X165  COST  0
    X165  R138  0.08724105358123779296875
    X165  R139  -0.2717176377773284912109375
    MARKER0003  'MARKER'  'INTEND'
    X166  COST  0
    X166  R140  1
    X166  R141  1
    X166  R142  1
    X166  R464  -0.3248911798000335693359375
    X166  R465  0.4912106096744537353515625
    MARKER0004  'MARKER'  'INTORG'
    X167  COST  0
    X167  R141  0.4899251461029052734375
    X167  R142  -0.046835005283355712890625
    MARKER0004  'MARKER'  'INTEND'
    X168  COST  0
    X168  R143  1
    X168  R144  1
    X168  R145  1
    X168  R464  -0.288671791553497314453125
    X168  R465  0.475369930267333984375
    MARKER0005  'MARKER'  'INTORG'
    X169  COST  0
    X169  R144  0.31899702548980712890625
    X169  R145  -0.18294449150562286376953125
    MARKER0005  'MARKER'  'INTEND'
    X170  COST  0
    X170  R146  1
    X170  R147  1
    X170  R148  1
    X170  R464  0.329700648784637451171875
    X170  R465  -0.1426413953304290771484375
    MARKER0006  'MARKER'  'INTORG'
    X171  COST  0
    X171  R147  0.1494822204113006591796875
    X171  R148  -0.182883203029632568359375
    MARKER0006  'MARKER'  'INTEND'
    X172  COST  0
    X172  R149  1
    X172  R150  1
    X172  R151  1
    X172  R464  -0.194414615631103515625
    X172  R465  0.4158036708831787109375
    MARKER0007  'MARKER'  'INTORG'
    X173  COST  0
    X173  R150  0.24561165273189544677734375
    X173  R151  -0.12208171188831329345703125
    MARKER0007  'MARKER'  'INTEND'
    X174  COST  0
    X174  R152  1
    X174  R153  1
    X174  R154  1
    X174  R464  -0.19068141281604766845703125
    X174  R465  0.4321687221527099609375
    MARKER0008  'MARKER'  'INTORG'
    X175  COST  0
    X175  R153  0.29699885845184326171875
    X175  R154  -0.12881855666637420654296875
    MARKER0008  'MARKER'  'INTEND'
    X176  COST  0
    X176  R155  1
    X176  R156  1
    X176  R157  1
    X176  R464  -0.4177872836589813232421875
    X176  R465  0.546938240528106689453125
    MARKER0009  'MARKER'  'INTORG'
    X177  COST  0
    X177  R156  0.2869175374507904052734375
    X177  R157  -0.2446392476558685302734375
    MARKER0009  'MARKER'  'INTEND'
    X178  COST  0
    X178  R158  1
    X178  R159  1
    X178  R160  1
    X178  R464  -0.4539372026920318603515625
    X178  R465  0.415187180042266845703125
    MARKER0010  'MARKER'  'INTORG'
    X179  COST  0
    X179  R159  0.1807958781719207763671875
    X179  R160  -0.2453106343746185302734375
    MARKER0010  'MARKER'  'INTEND'
    X180  COST  0
    X180  R161  1
    X180  R162  1
    X180  R163  1
    X180  R464  0.4703476130962371826171875
    X180  R465  -0.353437602519989013671875
    MARKER0011  'MARKER'  'INTORG'
    X181  COST  0
    X181  R162  0.4020976722240447998046875
    X181  R163  -0.0332938991487026214599609375
    MARKER0011  'MARKER'  'INTEND'
    X182  COST  0
    X182  R164  1
    X182  R165  1
    X182  R166  1
    X182  R464  0.3918072283267974853515625
    X182  R465  -0.510009288787841796875
    MARKER0012  'MARKER'  'INTORG'
    X183  COST  0
    X183  R165  0.449113309383392333984375
    X183  R166  -0.090290449559688568115234375
    MARKER0012  'MARKER'  'INTEND'
    X184  COST  0
    X184  R167  1
    X184  R168  1
    X184  R169  1
    X184  R464  -0.479685127735137939453125
    X184  R465  0.367030203342437744140625
    MARKER0013  'MARKER'  'INTORG'
    X185  COST  0
    X185  R168  0.4832401275634765625
    X185  R169  -0.017500020563602447509765625
    MARKER0013  'MARKER'  'INTEND'
    X186  COST  0
    X186  R170  1
    X186  R171  1
    X186  R172  1
    X186  R464  -0.3791379630565643310546875
    X186  R465  0.24046845734119415283203125
    MARKER0014  'MARKER'  'INTORG'
    X187  COST  0
    X187  R171  0.3976358473300933837890625
    X187  R172  -0.0353406965732574462890625
    MARKER0014  'MARKER'  'INTEND'
    X188  COST  0
    X188  R173  1
    X188  R174  1
    X188  R175  1
    X188  R464  -0.653807342052459716796875
    X188  R465  0.531609475612640380859375
    MARKER0015  'MARKER'  'INTORG'
    X189  COST  0
    X189  R174  0.3334436118602752685546875
    X189  R175  -0.2137130200862884521484375
    MARKER0015  'MARKER'  'INTEND'
    X190  COST  0
    X190  R176  1
    X190  R177  1
    X190  R178  1
    X190  R464  0.2814958393573760986328125
    X190  R465  -0.2770981490612030029296875
    MARKER0016  'MARKER'  'INTORG'
    X191  COST  0
    X191  R177  0.08062691986560821533203125
    X191  R178  -0.20653438568115234375
    MARKER0016  'MARKER'  'INTEND'
    X192  COST  0
    X192  R179  1
    X192  R180  1
    X192  R181  1
    X192  R464  0.2725481688976287841796875
    X192  R465  -0.4408711493015289306640625
    MARKER0017  'MARKER'  'INTORG'
    X193  COST  0
    X193  R180  0.3275409042835235595703125
    X193  R181  -0.1284148991107940673828125
    MARKER0017  'MARKER'  'INTEND'
    X194  COST  0
    X194  R182  1
    X194  R183  1
    X194  R184  1
    X194  R464  -0.3983059823513031005859375
    X194  R465  0.2702095210552215576171875
    MARKER0018  'MARKER'  'INTORG'
    X195  COST  0
    X195  R183  0.1893307864665985107421875
    X195  R184  -0.188520967960357666015625
    MARKER0018  'MARKER'  'INTEND'
    X196  COST  0
    X196  R185  1
    X196  R186  1
    X196  R187  1
    X196  R464  -0.2605172693729400634765625
    X196  R465  0.4052697718143463134765625
    MARKER0019  'MARKER'  'INTORG'
    X197  COST  0
    X197  R186  0.24304692447185516357421875
    X197  R187  -0.17177295684814453125
    MARKER0019  'MARKER'  'INTEND'
    X198  COST  0
    X198  R188  1
    X198  R189  1
    X198  R190  1
    X198  R464  0.105156771838665008544921875
    X198  R465  -0.385803282260894775390625
    MARKER0020  'MARKER'  'INTORG'
    X199  COST  0
    X199  R189  0.0793897211551666259765625
    X199  R190  -0.36328804492950439453125
    MARKER0020  'MARKER'  'INTEND'
    X200  COST  0
    X200  R191  1
    X200  R192  1
    X200  R193  1
    X200  R464  -0.4151866734027862548828125
    X200  R465  0.20928810536861419677734375
    MARKER0021  'MARKER'  'INTORG'
    X201  COST  0
    X201  R192  0.19857180118560791015625
    X201  R193  -0.2223581969738006591796875
    MARKER0021  'MARKER'  'INTEND'
    X202  COST  0
    X202  R194  1
    X202  R195  1
    X202  R196  1
    X202  R464  -0.477760612964630126953125
    X202  R465  0.455512821674346923828125
    MARKER0022  'MARKER'  'INTORG'
    X203  COST  0
    X203  R195  0.3999689519405364990234375
    X203  R196  -0.05921690165996551513671875
    MARKER0022  'MARKER'  'INTEND'
    X204  COST  0
    X204  R197  1
    X204  R198  1
    X204  R199  1
    X204  R464  0.2776708304882049560546875
    X204  R465  -0.406587541103363037109375
    MARKER0023  'MARKER'  'INTORG'
    X205  COST  0
    X205  R198  0.063139975070953369140625
    X205  R199  -0.341587126255035400390625
    MARKER0023  'MARKER'  'INTEND'
    X206  COST  0
    X206  R200  1
    X206  R201  1
    X206  R202  1
    X206  R464  -0.3424336016178131103515625
    X206  R465  0.43299388885498046875
    MARKER0024  'MARKER'  'INTORG'
    X207  COST  0
    X207  R201  0.18524904549121856689453125
    X207  R202  -0.231955587863922119140625
    MARKER0024  'MARKER'  'INTEND'
    X208  COST  0
    X208  R203  1
    X208  R204  1
    X208  R205  1
    X208  R464  -0.3758234679698944091796875
    X208  R465  0.387585461139678955078125
    MARKER0025  'MARKER'  'INTORG'
    X209  COST  0
    X209  R204  0.20269860327243804931640625
    X209  R205  -0.1879686415195465087890625
    MARKER0025  'MARKER'  'INTEND'
    X210  COST  0
    X210  R206  1
    X210  R207  1
    X210  R208  1
    X210  R464  -0.402247726917266845703125
    X210  R465  0.567987143993377685546875
    MARKER0026  'MARKER'  'INTORG'
    X211  COST  0
    X211  R207  0.30149042606353759765625
    X211  R208  -0.19767452776432037353515625
    MARKER0026  'MARKER'  'INTEND'
    X212  COST  0
    X212  R209  1
    X212  R210  1
    X212  R211  1
    X212  R464  0.3627214133739471435546875
    X212  R465  -0.44046938419342041015625
    MARKER0027  'MARKER'  'INTORG'
    X213  COST  0
    X213  R210  0.133161127567291259765625
    X213  R211  -0.23065698146820068359375
    MARKER0027  'MARKER'  'INTEND'
    X214  COST  0
    X214  R212  1
    X214  R213  1
    X214  R214  1
    X214  R464  -0.4739332497119903564453125
    X214  R465  0.3792259991168975830078125
    MARKER0028  'MARKER'  'INTORG'
    X215  COST  0
    X215  R213  0.3291855156421661376953125
    X215  R214  -0.1669306457042694091796875
    MARKER0028  'MARKER'  'INTEND'
    X216  COST  0
    X216  R215  1
    X216  R216  1
    X216  R217  1
    X216  R464  0.4506745040416717529296875
    X216  R465  -0.08968244493007659912109375
    MARKER0029  'MARKER'  'INTORG'
    X217  COST  0
    X217  R216  0.19682395458221435546875
    X217  R217  -0.3085515201091766357421875
    MARKER0029  'MARKER'  'INTEND'
    X218  COST  0
    X218  R218  1
    X218  R219  1
    X218  R220  1
    X218  R464  -0.331579387187957763671875
    X218  R465  0.4165780246257781982421875
    MARKER0030  'MARKER'  'INTORG'
    X219  COST  0
    X219  R219  0.2458823025226593017578125
    X219  R220  -0.19057142734527587890625
    MARKER0030  'MARKER'  'INTEND'
    X220  COST  0
    X220  R221  1
    X220  R222  1
    X220  R223  1
    X220  R464  -0.3407786786556243896484375
    X220  R465  0.4141577780246734619140625
    MARKER0031  'MARKER'  'INTORG'
    X221  COST  0
    X221  R222  0.3491852581501007080078125
    X221  R223  -0.16029213368892669677734375
    MARKER0031  'MARKER'  'INTEND'
    X222  COST  0
    X222  R224  1
    X222  R225  1
    X222  R226  1
    X222  R464  -0.366666615009307861328125
    X222  R465  0.4975719749927520751953125
    MARKER0032  'MARKER'  'INTORG'
    X223  COST  0
    X223  R225  0.301714003086090087890625
    X223  R226  -0.17057025432586669921875
    MARKER0032  'MARKER'  'INTEND'
    X224  COST  0
    X224  R227  1
    X224  R228  1
    X224  R229  1
    X224  R464  0.4585977494716644287109375
    X224  R465  -0.13130988180637359619140625
    MARKER0033  'MARKER'  'INTORG'
    X225  COST  0
    X225  R228  0.1038976609706878662109375
    X225  R229  -0.290453374385833740234375
    MARKER0033  'MARKER'  'INTEND'
    X226  COST  0
    X226  R230  1
    X226  R231  1
    X226  R232  1
    X226  R464  0.60049808025360107421875
    X226  R465  -0.4211522042751312255859375
    MARKER0034  'MARKER'  'INTORG'
    X227  COST  0
    X227  R231  0.3196544945240020751953125
    X227  R232  -0.21202068030834197998046875
    MARKER0034  'MARKER'  'INTEND'
    X228  COST  0
    X228  R233  1
    X228  R234  1
    X228  R235  1
    X228  R464  0.257034778594970703125
    X228  R465  -0.24165399372577667236328125
    MARKER0035  'MARKER'  'INTORG'
    X229  COST  0
    X229  R234  0.1596683561801910400390625
    X229  R235  -0.206048309803009033203125
    MARKER0035  'MARKER'  'INTEND'
    X230  COST  0
    X230  R236  1
    X230  R237  1
    X230  R238  1
    X230  R464  -0.3995366394519805908203125
    X230  R465  0.3444134294986724853515625
    MARKER0036  'MARKER'  'INTORG'
    X231  COST  0
    X231  R237  0.271951735019683837890625
    X231  R238  -0.15945963561534881591796875
    MARKER0036  'MARKER'  'INTEND'
    X232  COST  0
    X232  R239  1
    X232  R240  1
    X232  R241  1
    X232  R464  -0.508141696453094482421875
    X232  R465  0.3953174650669097900390625
    MARKER0037  'MARKER'  'INTORG'
    X233  COST  0
    X233  R240  0.23507656157016754150390625
    X233  R241  -0.24722754955291748046875
    MARKER0037  'MARKER'  'INTEND'
    X234  COST  0
    X234  R242  1
    X234  R243  1
    X234  R244  1
    X234  R464  -0.4336681365966796875
    X234  R465  0.20739869773387908935546875
    MARKER0038  'MARKER'  'INTORG'
    X235  COST  0
    X235  R243  0.274555504322052001953125
    X235  R244  -0.15941618382930755615234375
    MARKER0038  'MARKER'  'INTEND'
    X236  COST  0
    X236  R245  1
    X236  R246  1
    X236  R247  1
    X236  R464  -0.522463262081146240234375
    X236  R465  0.357341945171356201171875
    MARKER0039  'MARKER'  'INTORG'
    X237  COST  0
    X237  R246  0.23371522128582000732421875
    X237  R247  -0.2821350395679473876953125
    MARKER0039  'MARKER'  'INTEND'
    X238  COST  0
    X238  R248  1
    X238  R249  1
    X238  R250  1
    X238  R464  0.3556061089038848876953125
    X238  R465  -0.3559272289276123046875
    MARKER0040  'MARKER'  'INTORG'
    X239  COST  0
    X239  R249  0.03169636428356170654296875
    X239  R250  -0.368641555309295654296875
    MARKER0040  'MARKER'  'INTEND'
    X240  COST  0
    X240  R251  1
    X240  R252  1
    X240  R253  1
    X240  R464  -0.2307422161102294921875
    X240  R465  0.41103971004486083984375
    MARKER0041  'MARKER'  'INTORG'
    X241  COST  0
    X241  R252  0.15840934216976165771484375
    X241  R253  -0.2700698077678680419921875
    MARKER0041  'MARKER'  'INTEND'
    X242  COST  0
    X242  R254  1
    X242  R255  1
    X242  R256  1
    X242  R464  0.18390668928623199462890625
    X242  R465  -0.4652399718761444091796875
    MARKER0042  'MARKER'  'INTORG'
    X243  COST  0
    X243  R255  0.23015348613262176513671875
    X243  R256  -0.2446280419826507568359375
    MARKER0042  'MARKER'  'INTEND'
    X244  COST  0
    X244  R257  1
    X244  R258  1
    X244  R259  1
    X244  R464  0.17073576152324676513671875
    X244  R465  -0.5024721622467041015625
    MARKER0043  'MARKER'  'INTORG'
    X245  COST  0
    X245  R258  0.3473514020442962646484375
    X245  R259  -0.2287221848964691162109375
    MARKER0043  'MARKER'  'INTEND'
    X246  COST  0
    X246  R260  1
    X246  R261  1
    X246  R262  1
    X246  R464  0.3863236010074615478515625
    X246  R465  -0.501270353794097900390625
    MARKER0044  'MARKER'  'INTORG'
    X247  COST  0
    X247  R261  0.18557965755462646484375
    X247  R262  -0.2144575417041778564453125
    MARKER0044  'MARKER'  'INTEND'
    X248  COST  0
    X248  R263  1
    X248  R264  1
    X248  R265  1
    X248  R464  0.284300863742828369140625
    X248  R465  -0.364286243915557861328125
    MARKER0045  'MARKER'  'INTORG'
    X249  COST  0
    X249  R264  0.08750505745410919189453125
    X249  R265  -0.2635139524936676025390625
    MARKER0045  'MARKER'  'INTEND'
    X250  COST  0
    X250  R266  1
    X250  R267  1
    X250  R268  1
    X250  R464  -0.1437077820301055908203125
    X250  R465  0.366778194904327392578125
    MARKER0046  'MARKER'  'INTORG'
    X251  COST  0
    X251  R267  0.17022050917148590087890625
    X251  R268  -0.2039676010608673095703125
    MARKER0046  'MARKER'  'INTEND'
    X252  COST  0
    X252  R269  1
    X252  R270  1
    X252  R271  1
    X252  R464  -0.3036234378814697265625
    X252  R465  0.52754878997802734375
    MARKER0047  'MARKER'  'INTORG'
    X253  COST  0
    X253  R270  0.2478380501270294189453125
    X253  R271  -0.2582176029682159423828125
    MARKER0047  'MARKER'  'INTEND'
    X254  COST  0
    X254  R272  1
    X254  R273  1
    X254  R274  1
    X254  R464  -0.518587410449981689453125
    X254  R465  0.70829188823699951171875
    MARKER0048  'MARKER'  'INTORG'
    X255  COST  0
    X255  R273  0.51619541645050048828125
    X255  R274  -0.0132563114166259765625
    MARKER0048  'MARKER'  'INTEND'
    X256  COST  0
    X256  R275  1
    X256  R276  1
    X256  R277  1
    X256  R464  0.4373345673084259033203125
    X256  R465  -0.585998713970184326171875
    MARKER0049  'MARKER'  'INTORG'
    X257  COST  0
    X257  R276  0.3186829090118408203125
    X257  R277  -0.18210436403751373291015625
    MARKER0049  'MARKER'  'INTEND'
    X258  COST  0
    X258  R278  1
    X258  R279  1
    X258  R280  1
    X258  R464  0.4045174419879913330078125
    X258  R465  -0.22812926769256591796875
    MARKER0050  'MARKER'  'INTORG'
    X259  COST  0
    X259  R279  0.0069163255393505096435546875
    X259  R280  -0.3016877472400665283203125
    MARKER0050  'MARKER'  'INTEND'
    X260  COST  0
    X260  R281  1
    X260  R282  1
    X260  R283  1
    X260  R464  -0.567768275737762451171875
    X260  R465  0.715812623500823974609375
    MARKER0051  'MARKER'  'INTORG'
    X261  COST  0
    X261  R282  0.506689488887786865234375
    X261  R283  -0.2543637752532958984375
    MARKER0051  'MARKER'  'INTEND'
    X262  COST  0
    X262  R284  1
    X262  R285  1
    X262  R286  1
    X262  R464  -0.49503171443939208984375
    X262  R465  0.592737138271331787109375
    MARKER0052  'MARKER'  'INTORG'
    X263  COST  0
    X263  R285  0.2531071007251739501953125
    X263  R286  -0.3465122878551483154296875
    MARKER0052  'MARKER'  'INTEND'
    X264  COST  0
    X264  R287  1
    X264  R288  1
    X264  R289  1
    X264  R464  0.3985768854618072509765625
    X264  R465  -0.1681101322174072265625
    MARKER0053  'MARKER'  'INTORG'
    X265  COST  0
    X265  R288  0.046859376132488250732421875
    X265  R289  -0.30634868144989013671875
    MARKER0053  'MARKER'  'INTEND'
    X266  COST  0
    X266  R290  1
    X266  R291  1
    X266  R292  1
    X266  R464  0.2371688187122344970703125
    X266  R465  -0.411514222621917724609375
    MARKER0054  'MARKER'  'INTORG'
    X267  COST  0
    X267  R291  0.1510299742221832275390625
    X267  R292  -0.177563488483428955078125
    MARKER0054  'MARKER'  'INTEND'
    X268  COST  0
    X268  R293  1
    X268  R294  1
    X268  R295  1
    X268  R464  -0.509383261203765869140625
    X268  R465  0.24164785444736480712890625
    MARKER0055  'MARKER'  'INTORG'
    X269  COST  0
    X269  R294  0.3462351858615875244140625
    X269  R295  -0.13606770336627960205078125
    MARKER0055  'MARKER'  'INTEND'
    X270  COST  0
    X270  R296  1
    X270  R297  1
    X270  R298  1
    X270  R464  -0.3234659731388092041015625
    X270  R465  0.4294590651988983154296875
    MARKER0056  'MARKER'  'INTORG'
    X271  COST  0
    X271  R297  0.19039116799831390380859375
    X271  R298  -0.2080309092998504638671875
    MARKER0056  'MARKER'  'INTEND'
    X272  COST  0
    X272  R299  1
    X272  R300  1
    X272  R301  1
    X272  R464  -0.4972376525402069091796875
    X272  R465  0.348099410533905029296875
    MARKER0057  'MARKER'  'INTORG'
    X273  COST  0
    X273  R300  0.22133295238018035888671875
    X273  R301  -0.17070662975311279296875
    MARKER0057  'MARKER'  'INTEND'
    X274  COST  0
    X274  R302  1
    X274  R303  1
    X274  R304  1
    X274  R464  -0.4095733165740966796875
    X274  R465  0.3729890882968902587890625
    MARKER0058  'MARKER'  'INTORG'
    X275  COST  0
    X275  R303  0.098808586597442626953125
    X275  R304  -0.2855267822742462158203125
    MARKER0058  'MARKER'  'INTEND'
    X276  COST  0
    X276  R305  1
    X276  R306  1
    X276  R307  1
    X276  R464  -0.20298011600971221923828125
    X276  R465  0.4963975250720977783203125
    MARKER0059  'MARKER'  'INTORG'
    X277  COST  0
    X277  R306  0.346816539764404296875
    X277  R307  -0.14352168142795562744140625
    MARKER0059  'MARKER'  'INTEND'
    X278  COST  0
    X278  R308  1
    X278  R309  1
    X278  R310  1
    X278  R464  -0.2943686544895172119140625
    X278  R465  0.4271585941314697265625
    MARKER0060  'MARKER'  'INTORG'
    X279  COST  0
    X279  R309  0.16880337893962860107421875
    X279  R310  -0.18651105463504791259765625
    MARKER0060  'MARKER'  'INTEND'
    X280  COST  0
    X280  R311  1
    X280  R312  1
    X280  R313  1
    X280  R464  0.158469140529632568359375
    X280  R465  -0.167463243007659912109375
    MARKER0061  'MARKER'  'INTORG'
    X281  COST  0
    X281  R312  0.2865613996982574462890625
    X281  R313  -0.07243163883686065673828125
    MARKER0061  'MARKER'  'INTEND'
    X282  COST  0
    X282  R314  1
    X282  R315  1
    X282  R316  1
    X282  R464  0.4129041135311126708984375
    X282  R465  -0.16548062860965728759765625
    MARKER0062  'MARKER'  'INTORG'
    X283  COST  0
    X283  R315  0.2721258103847503662109375
    X283  R316  -0.1647569835186004638671875
    MARKER0062  'MARKER'  'INTEND'
    X284  COST  0
    X284  R317  1
    X284  R318  1
    X284  R319  1
    X284  R464  0.06058673560619354248046875
    X284  R465  -0.3285771310329437255859375
    MARKER0063  'MARKER'  'INTORG'
    X285  COST  0
    X285  R318  0.2921187877655029296875
    X285  R319  -0.090461976826190948486328125
    MARKER0063  'MARKER'  'INTEND'
    X286  COST  0
    X286  R320  1
    X286  R321  1
    X286  R322  1
    X286  R464  0.2949515283107757568359375
    X286  R465  -0.51969683170318603515625
    MARKER0064  'MARKER'  'INTORG'
    X287  COST  0
    X287  R321  0.122722469270229339599609375
    X287  R322  -0.3042854368686676025390625
    MARKER0064  'MARKER'  'INTEND'
    X288  COST  0
    X288  R323  1
    X288  R324  1
    X288  R325  1
    X288  R464  -0.4268779456615447998046875
    X288  R465  0.307751595973968505859375
    MARKER0065  'MARKER'  'INTORG'
    X289  COST  0
    X289  R324  0.23028515279293060302734375
    X289  R325  -0.1558466851711273193359375
    MARKER0065  'MARKER'  'INTEND'
    X290  COST  0
    X290  R326  1
    X290  R327  1
    X290  R328  1
    X290  R464  -0.4308592975139617919921875
    X290  R465  0.427488029003143310546875
    MARKER0066  'MARKER'  'INTORG'
    X291  COST  0
    X291  R327  0.4237438738346099853515625
    X291  R328  -0.11029167473316192626953125
    MARKER0066  'MARKER'  'INTEND'
    X292  COST  0
    X292  R329  1
    X292  R330  1
    X292  R331  1
    X292  R464  0.2975142896175384521484375
    X292  R465  -0.446558475494384765625
    MARKER0067  'MARKER'  'INTORG'
    X293  COST  0
    X293  R330  0.050900019705295562744140625
    X293  R331  -0.366597235202789306640625
    MARKER0067  'MARKER'  'INTEND'
    X294  COST  0
    X294  R332  1
    X294  R333  1
    X294  R334  1
    X294  R464  0.381453454494476318359375
    X294  R465  -0.2182258069515228271484375
    MARKER0068  'MARKER'  'INTORG'
    X295  COST  0
    X295  R333  0.16886503994464874267578125
    X295  R334  -0.22457270324230194091796875
    MARKER0068  'MARKER'  'INTEND'
    X296  COST  0
    X296  R335  1
    X296  R336  1
    X296  R337  1
    X296  R464  -0.5597918033599853515625
    X296  R465  0.3502497971057891845703125
    MARKER0069  'MARKER'  'INTORG'
    X297  COST  0
    X297  R336  0.45607888698577880859375
    X297  R337  -0.121748350560665130615234375
    MARKER0069  'MARKER'  'INTEND'
    X298  COST  0
    X298  R338  1
    X298  R339  1
    X298  R340  1
    X298  R464  0.56415498256683349609375
    X298  R465  -0.3264400064945220947265625
    MARKER0070  'MARKER'  'INTORG'
    X299  COST  0
    X299  R339  0.2987056076526641845703125
    X299  R340  -0.278377056121826171875
    MARKER0070  'MARKER'  'INTEND'
    X300  COST  0
    X300  R341  1
    X300  R342  1
    X300  R343  1
    X300  R464  0.44967043399810791015625
    X300  R465  -0.2055423259735107421875
    MARKER0071  'MARKER'  'INTORG'
    X301  COST  0
    X301  R342  0.1304090023040771484375
    X301  R343  -0.290175914764404296875
    MARKER0071  'MARKER'  'INTEND'
    X302  COST  0
    X302  R344  1
    X302  R345  1
    X302  R346  1
    X302  R464  0.3784574568271636962890625
    X302  R465  -0.2603953778743743896484375
    MARKER0072  'MARKER'  'INTORG'
    X303  COST  0
    X303  R345  0.2107838690280914306640625
    X303  R346  -0.16521029174327850341796875
    MARKER0072  'MARKER'  'INTEND'
    X304  COST  0
    X304  R347  1
    X304  R348  1
    X304  R349  1
    X304  R464  -0.2087719440460205078125
    X304  R465  0.357628524303436279296875
    MARKER0073  'MARKER'  'INTORG'
    X305  COST  0
    X305  R348  0.2093308866024017333984375
    X305  R349  -0.14953553676605224609375
    MARKER0073  'MARKER'  'INTEND'
    X306  COST  0
    X306  R350  1
    X306  R351  1
    X306  R352  1
    X306  R464  -0.476341724395751953125
    X306  R465  0.2690536081790924072265625
    MARKER0074  'MARKER'  'INTORG'
    X307  COST  0
    X307  R351  0.21709920465946197509765625
    X307  R352  -0.23236466944217681884765625
    MARKER0074  'MARKER'  'INTEND'
    X308  COST  0
    X308  R353  1
    X308  R354  1
    X308  R355  1
    X308  R464  0.3920683562755584716796875
    X308  R465  -0.31312906742095947265625
    MARKER0075  'MARKER'  'INTORG'
    X309  COST  0
    X309  R354  0.0345011986792087554931640625
    X309  R355  -0.4346144497394561767578125
    MARKER0075  'MARKER'  'INTEND'
    X310  COST  0
    X310  R356  1
    X310  R357  1
    X310  R358  1
    X310  R464  0.4826357662677764892578125
    X310  R465  -0.460236012935638427734375
    MARKER0076  'MARKER'  'INTORG'
    X311  COST  0
    X311  R357  0.4450887143611907958984375
    X311  R358  -0.00422458350658416748046875
    MARKER0076  'MARKER'  'INTEND'
    X312  COST  0
    X312  R359  1
    X312  R360  1
    X312  R361  1
    X312  R464  -0.4564279019832611083984375
    X312  R465  0.2646121978759765625
    MARKER0077  'MARKER'  'INTORG'
    X313  COST  0
    X313  R360  0.297371447086334228515625
    X313  R361  -0.1692636907100677490234375
    MARKER0077  'MARKER'  'INTEND'
    X314  COST  0
    X314  R362  1
    X314  R363  1
    X314  R364  1
    X314  R464  0.4414952099323272705078125
    X314  R465  -0.4717870652675628662109375
    MARKER0078  'MARKER'  'INTORG'
    X315  COST  0
    X315  R363  0.055777214467525482177734375
    X315  R364  -0.4345701634883880615234375
    MARKER0078  'MARKER'  'INTEND'
    X316  COST  0
    X316  R365  1
    X316  R366  1
    X316  R367  1
    X316  R464  0.352003633975982666015625
    X316  R465  -0.4407986700534820556640625
    MARKER0079  'MARKER'  'INTORG'
    X317  COST  0
    X317  R366  0.0372687280178070068359375
    X317  R367  -0.3801096379756927490234375
    MARKER0079  'MARKER'  'INTEND'
    X318  COST  0
    X318  R368  1
    X318  R369  1
    X318  R370  1
    X318  R464  0.21260929107666015625
    X318  R465  -0.4191732108592987060546875
    MARKER0080  'MARKER'  'INTORG'
    X319  COST  0
    X319  R369  0.075731001794338226318359375
    X319  R370  -0.32500207424163818359375
    MARKER0080  'MARKER'  'INTEND'
    X320  COST  0
    X320  R371  1
    X320  R372  1
    X320  R373  1
    X320  R464  0.509506881237030029296875
    X320  R465  -0.491043508052825927734375
    MARKER0081  'MARKER'  'INTORG'
    X321  COST  0
    X321  R372  0.000685371458530426025390625
    X321  R373  -0.481924593448638916015625
    MARKER0081  'MARKER'  'INTEND'
    X322  COST  0
    X322  R374  1
    X322  R375  1
    X322  R376  1
    X322  R464  -0.02277434431016445159912109375
    X322  R465  0.12584526836872100830078125
    MARKER0082  'MARKER'  'INTORG'
    X323  COST  0
    X323  R375  0.19760854542255401611328125
    X323  R376  -0.046132005751132965087890625
    MARKER0082  'MARKER'  'INTEND'
    X324  COST  0
    X324  R377  1
    X324  R378  1
    X324  R379  1
    X324  R464  0.148377954959869384765625
    X324  R465  -0.4132741391658782958984375
    MARKER0083  'MARKER'  'INTORG'
    X325  COST  0
    X325  R378  0.24456465244293212890625
    X325  R379  -0.12742434442043304443359375
    MARKER0083  'MARKER'  'INTEND'
    X326  COST  0
    X326  R380  1
    X326  R381  1
    X326  R382  1
    X326  R464  0.21170990169048309326171875
    X326  R465  -0.2632018625736236572265625
    MARKER0084  'MARKER'  'INTORG'
    X327  COST  0
    X327  R381  0.18204624950885772705078125
    X327  R382  -0.225873410701751708984375
    MARKER0084  'MARKER'  'INTEND'
    X328  COST  0
    X328  R383  1
    X328  R384  1
    X328  R385  1
    X328  R464  -0.2934521734714508056640625
    X328  R465  0.4148926436901092529296875
    MARKER0085  'MARKER'  'INTORG'
    X329  COST  0
    X329  R384  0.2579452097415924072265625
    X329  R385  -0.1597941815853118896484375
    MARKER0085  'MARKER'  'INTEND'
    X330  COST  0
    X330  R386  1
    X330  R387  1
    X330  R388  1
    X330  R464  0.425720870494842529296875
    X330  R465  -0.2580984532833099365234375
    MARKER0086  'MARKER'  'INTORG'
    X331  COST  0
    X331  R387  0.4315521419048309326171875
    X331  R388  -0.0461997203528881072998046875
    MARKER0086  'MARKER'  'INTEND'
    X332  COST  0
    X332  R389  1
    X332  R390  1
    X332  R391  1
    X332  R464  -0.4386651813983917236328125
    X332  R465  0.39194548130035400390625
    MARKER0087  'MARKER'  'INTORG'
    X333  COST  0
    X333  R390  0.3248731195926666259765625
    X333  R391  -0.080223910510540008544921875
    MARKER0087  'MARKER'  'INTEND'
    X334  COST  0
    X334  R392  1
    X334  R393  1
    X334  R394  1
    X334  R464  -0.234598934650421142578125
    X334  R465  0.4403947293758392333984375
    MARKER0088  'MARKER'  'INTORG'
    X335  COST  0
    X335  R393  0.320481240749359130859375
    X335  R394  -0.13484551012516021728515625
    MARKER0088  'MARKER'  'INTEND'
    X336  COST  0
    X336  R395  1
    X336  R396  1
    X336  R397  1
    X336  R464  -0.4622471630573272705078125
    X336  R465  0.584966599941253662109375
    MARKER0089  'MARKER'  'INTORG'
    X337  COST  0
    X337  R396  0.313524305820465087890625
    X337  R397  -0.2614032328128814697265625
    MARKER0089  'MARKER'  'INTEND'
    X338  COST  0
    X338  R398  1
    X338  R399  1
    X338  R400  1
    X338  R464  0.04774679243564605712890625
    X338  R465  -0.4276476204395294189453125
    MARKER0090  'MARKER'  'INTORG'
    X339  COST  0
    X339  R399  0.07502953708171844482421875
    X339  R400  -0.3170826137065887451171875
    MARKER0090  'MARKER'  'INTEND'
    X340  COST  0
    X340  R464  0.3807339966297149658203125
    X340  R465  -0.0452719889581203460693359375
    X341  COST  0
    X341  R401  1
    X341  R402  1
    X341  R403  1
    X341  R464  0.4222190380096435546875
    X341  R465  -0.18428219854831695556640625
    MARKER0091  'MARKER'  'INTORG'
    X342  COST  0
    X342  R402  0.331867873668670654296875
    X342  R403  -0.116998396813869476318359375
    MARKER0091  'MARKER'  'INTEND'
    X343  COST  0
    X343  R404  1
    X343  R405  1
    X343  R406  1
    X343  R464  -0.468890368938446044921875
    X343  R465  0.3836667537689208984375
    MARKER0092  'MARKER'  'INTORG'
    X344  COST  0
    X344  R405  0.3061724603176116943359375
    X344  R406  -0.0548284351825714111328125
    MARKER0092  'MARKER'  'INTEND'
    X345  COST  0
    X345  R407  1
    X345  R408  1
    X345  R409  1
    X345  R464  0.12558408081531524658203125
    X345  R465  -0.3538679778575897216796875
    MARKER0093  'MARKER'  'INTORG'
    X346  COST  0
    X346  R408  0.035087592899799346923828125
    X346  R409  -0.3385324776172637939453125
    MARKER0093  'MARKER'  'INTEND'
    X347  COST  0
    X347  R410  1
    X347  R411  1
    X347  R412  1
    X347  R464  -0.31009709835052490234375
    X347  R465  0.2876175343990325927734375
    MARKER0094  'MARKER'  'INTORG'
    X348  COST  0
    X348  R411  0.193706512451171875
    X348  R412  -0.1256734430789947509765625
    MARKER0094  'MARKER'  'INTEND'
    X349  COST  0
    X349  R413  1
    X349  R414  1
    X349  R415  1
    X349  R464  0.3585215508937835693359375
    X349  R465  -0.14083819091320037841796875
    MARKER0095  'MARKER'  'INTORG'
    X350  COST  0
    X350  R414  0.10445208847522735595703125
    X350  R415  -0.238062679767608642578125
    MARKER0095  'MARKER'  'INTEND'
    X351  COST  0
    X351  R416  1
    X351  R417  1
    X351  R418  1
    X351  R464  0.273158490657806396484375
    X351  R465  -0.2385415136814117431640625
    MARKER0096  'MARKER'  'INTORG'
    X352  COST  0
    X352  R417  0.2171187698841094970703125
    X352  R418  -0.258614838123321533203125
    MARKER0096  'MARKER'  'INTEND'
    X353  COST  0
    X353  R419  1
    X353  R420  1
    X353  R421  1
    X353  R464  0.2637883722782135009765625
    X353  R465  -0.3188471496105194091796875
    MARKER0097  'MARKER'  'INTORG'
    X354  COST  0
    X354  R420  0.3164165914058685302734375
    X354  R421  -0.1391990184783935546875
    MARKER0097  'MARKER'  'INTEND'
    X355  COST  0
    X355  R422  1
    X355  R423  1
    X355  R424  1
    X355  R464  -0.26685559749603271484375
    X355  R465  0.4329756200313568115234375
    MARKER0098  'MARKER'  'INTORG'
    X356  COST  0
    X356  R423  0.16269762814044952392578125
    X356  R424  -0.23194308578968048095703125
    MARKER0098  'MARKER'  'INTEND'
    X357  COST  0
    X357  R425  1
    X357  R426  1
    X357  R427  1
    X357  R464  0.258427679538726806640625
    X357  R465  -0.41075897216796875
    MARKER0099  'MARKER'  'INTORG'
    X358  COST  0
    X358  R426  0.3896860778331756591796875
    X358  R427  -0.0295590125024318695068359375
    MARKER0099  'MARKER'  'INTEND'
    X359  COST  0
    X359  R464  0.4066722095012664794921875
    X359  R465  -0.32524526119232177734375
    X360  COST  0
    X360  R428  1
    X360  R429  1
    X360  R430  1
    X360  R464  -0.5728194713592529296875
    X360  R465  0.2063513100147247314453125
    MARKER0100  'MARKER'  'INTORG'
    X361  COST  0
    X361  R429  0.3907084763050079345703125
    X361  R430  -0.1722223758697509765625
    MARKER0100  'MARKER'  'INTEND'
    X362  COST  0
    X362  R431  1
    X362  R432  1
    X362  R433  1
    X362  R464  0.260401427745819091796875
    X362  R465  -0.4093429148197174072265625
    MARKER0101  'MARKER'  'INTORG'
    X363  COST  0
    X363  R432  0.480129897594451904296875
    X363  R433  -0.02605432085692882537841796875
    MARKER0101  'MARKER'  'INTEND'
    X364  COST  0
    X364  R434  1
    X364  R435  1
    X364  R436  1
    X364  R464  0.5106322765350341796875
    X364  R465  -0.4479331672191619873046875
    MARKER0102  'MARKER'  'INTORG'
    X365  COST  0
    X365  R435  0.434603035449981689453125
    X365  R436  -0.075347654521465301513671875
    MARKER0102  'MARKER'  'INTEND'
    X366  COST  0
    X366  R437  1
    X366  R438  1
    X366  R439  1
    X366  R464  -0.282395422458648681640625
    X366  R465  0.2874846160411834716796875
    MARKER0103  'MARKER'  'INTORG'
    X367  COST  0
    X367  R438  0.1527037322521209716796875
    X367  R439  -0.1769202649593353271484375
    MARKER0103  'MARKER'  'INTEND'
    X368  COST  0
    X368  R440  1
    X368  R441  1
    X368  R442  1
    X368  R464  -0.415352046489715576171875
    X368  R465  0.4385202229022979736328125
    MARKER0104  'MARKER'  'INTORG'
    X369  COST  0
    X369  R441  0.22992180287837982177734375
    X369  R442  -0.2226369380950927734375
    MARKER0104  'MARKER'  'INTEND'
    X370  COST  0
    X370  R443  1
    X370  R444  1
    X370  R445  1
    X370  R464  -0.38461101055145263671875
    X370  R465  0.23814414441585540771484375
    MARKER0105  'MARKER'  'INTORG'
    X371  COST  0
    X371  R444  0.325046956539154052734375
    X371  R445  -0.094959728419780731201171875
    MARKER0105  'MARKER'  'INTEND'
    X372  COST  0
    X372  R446  1
    X372  R447  1
    X372  R448  1
    X372  R464  0.382346928119659423828125
    X372  R465  -0.018756248056888580322265625
    MARKER0106  'MARKER'  'INTORG'
    X373  COST  0
    X373  R447  0.08460982143878936767578125
    X373  R448  -0.2497049272060394287109375
    MARKER0106  'MARKER'  'INTEND'
    X374  COST  0
    X374  R449  1
    X374  R450  1
    X374  R451  1
    X374  R464  -0.4694368839263916015625
    X374  R465  0.27021586894989013671875
    MARKER0107  'MARKER'  'INTORG'
    X375  COST  0
    X375  R450  0.3306695520877838134765625
    X375  R451  -0.20247466862201690673828125
    MARKER0107  'MARKER'  'INTEND'
    X376  COST  0
    X376  R452  1
    X376  R453  1
    X376  R454  1
    X376  R464  0.4031699001789093017578125
    X376  R465  -0.3913333415985107421875
    MARKER0108  'MARKER'  'INTORG'
    X377  COST  0
    X377  R453  0.113685168325901031494140625
    X377  R454  -0.24967046082019805908203125
    MARKER0108  'MARKER'  'INTEND'
    X378  COST  0
    X378  R455  1
    X378  R456  1
    X378  R457  1
    X378  R464  0.325402796268463134765625
    X378  R465  -0.244166791439056396484375
    MARKER0109  'MARKER'  'INTORG'
    X379  COST  0
    X379  R456  0.033872641623020172119140625
    X379  R457  -0.2520333230495452880859375
    MARKER0109  'MARKER'  'INTEND'
    X380  COST  0
    X380  R458  1
    X380  R459  1
    X380  R460  1
    X380  R464  0.33828985691070556640625
    X380  R465  -0.253185808658599853515625
    MARKER0110  'MARKER'  'INTORG'
    X381  COST  0
    X381  R459  0.108032248914241790771484375
    X381  R460  -0.316626727581024169921875
    MARKER0110  'MARKER'  'INTEND'
    X382  COST  0
    X382  R461  1
    X382  R462  1
    X382  R463  1
    X382  R464  0.29475891590118408203125
    X382  R465  -0.14764730632305145263671875
    MARKER0111  'MARKER'  'INTORG'
    X383  COST  0
    X383  R462  0.14168639481067657470703125
    X383  R463  -0.15366946160793304443359375
    MARKER0111  'MARKER'  'INTEND'
    X384  COST  0
    X384  R464  -1
    X384  R466  1
    X385  COST  0
    X385  R465  -1
    X385  R466  -1
RHS
    RHS  R0  -0.083142422139644622802734375
    RHS  R1  -0.08821673691272735595703125
    RHS  R2  0.110838629305362701416015625
    RHS  R3  -0.08964429795742034912109375
    RHS  R4  -0.011711741797626018524169921875
    RHS  R5  -0.064615823328495025634765625
    RHS  R6  -0.026266276836395263671875
    RHS  R7  -0.0590381585061550140380859375
    RHS  R8  -0.072187088429927825927734375
    RHS  R9  -0.087430775165557861328125
    RHS  R10  0.046754188835620880126953125
    RHS  R11  -0.0176870524883270263671875
    RHS  R12  -0.010559589602053165435791015625
    RHS  R13  -0.0037290789186954498291015625
    RHS  R14  0.074178569018840789794921875
    RHS  R15  0.06195278465747833251953125
    RHS  R16  0.031071729958057403564453125
    RHS  R17  -0.08668862283229827880859375
    RHS  R18  0.018889032304286956787109375
    RHS  R19  -0.1045401990413665771484375
    RHS  R20  -0.097784198820590972900390625
    RHS  R21  -0.111882217228412628173828125
    RHS  R22  -0.06222794950008392333984375
    RHS  R23  -0.0507028400897979736328125
    RHS  R24  -0.0381559990346431732177734375
    RHS  R25  0.01433053053915500640869140625
    RHS  R26  -0.06276176869869232177734375
    RHS  R27  -0.04937137663364410400390625
    RHS  R28  -0.0563275776803493499755859375
    RHS  R29  0.01182690821588039398193359375
    RHS  R30  -0.01958906650543212890625
    RHS  R31  0.03003388457000255584716796875
    RHS  R32  -0.032740890979766845703125
    RHS  R33  -0.0608806572854518890380859375
    RHS  R34  -0.060362704098224639892578125
    RHS  R35  -0.050732843577861785888671875
    RHS  R36  0.0480073206126689910888671875
    RHS  R37  -0.07473446428775787353515625
    RHS  R38  0.07891730964183807373046875
    RHS  R39  0.01923810876905918121337890625
    RHS  R40  0.053642027080059051513671875
    RHS  R41  -0.0762269794940948486328125
    RHS  R42  -0.03548021614551544189453125
    RHS  R43  -0.048491246998310089111328125
    RHS  R44  0.02942417562007904052734375
    RHS  R45  -0.071376778185367584228515625
    RHS  R46  -0.0624970979988574981689453125
    RHS  R47  0.054389663040637969970703125
    RHS  R48  -0.1047683656215667724609375
    RHS  R49  -0.008768253028392791748046875
    RHS  R50  -0.0269629843533039093017578125
    RHS  R51  0.0071626934222877025604248046875
    RHS  R52  -0.08252693712711334228515625
    RHS  R53  -0.08155910670757293701171875
    RHS  R54  0.02857966162264347076416015625
    RHS  R55  0.06319813430309295654296875
    RHS  R56  0.02661657892167568206787109375
    RHS  R57  -0.043329775333404541015625
    RHS  R58  0.0127098970115184783935546875
    RHS  R59  0.061056189239025115966796875
    RHS  R60  -0.082548908889293670654296875
    RHS  R61  -0.072222985327243804931640625
    RHS  R62  -0.0369031392037868499755859375
    RHS  R63  -0.056287698447704315185546875
    RHS  R64  -0.080135695636272430419921875
    RHS  R65  0.01662279665470123291015625
    RHS  R66  -0.02908175252377986907958984375
    RHS  R67  -0.060338072478771209716796875
    RHS  R68  -0.0741288661956787109375
    RHS  R69  0.0507321655750274658203125
    RHS  R70  -0.083399794995784759521484375
    RHS  R71  -0.086571730673313140869140625
    RHS  R72  -0.0572946071624755859375
    RHS  R73  -0.01143307797610759735107421875
    RHS  R74  -0.065948359668254852294921875
    RHS  R75  -0.008500711061060428619384765625
    RHS  R76  -0.01617686450481414794921875
    RHS  R77  -0.0385392718017101287841796875
    RHS  R78  -0.0782304108142852783203125
    RHS  R79  -0.0102774538099765777587890625
    RHS  R80  -0.0045165121555328369140625
    RHS  R81  -0.0428343303501605987548828125
    RHS  R82  -0.036019317805767059326171875
    RHS  R83  -0.0878727138042449951171875
    RHS  R84  -0.0605466626584529876708984375
    RHS  R85  0.0011692973785102367401123046875
    RHS  R86  -0.0324791632592678070068359375
    RHS  R87  0.0272780694067478179931640625
    RHS  R88  -0.0203950218856334686279296875
    RHS  R89  -0.008657696656882762908935546875
    RHS  R90  -0.04271896183490753173828125
    RHS  R91  -0.069873757660388946533203125
    RHS  R92  0.0102099590003490447998046875
    RHS  R93  -0.0899004638195037841796875
    RHS  R94  0.06412039697170257568359375
    RHS  R95  -0.0042430539615452289581298828125
    RHS  R96  -0.0583226568996906280517578125
    RHS  R97  -0.0430252514779567718505859375
    RHS  R98  -0.0210703350603580474853515625
    RHS  R99  -0.040473617613315582275390625
    RHS  R100  -0.079990155994892120361328125
    RHS  R101  -0.0514428354799747467041015625
    RHS  R102  -0.05511625111103057861328125
    RHS  R103  -0.0019113714806735515594482421875
    RHS  R104  -0.06562198698520660400390625
    RHS  R105  0.0535277388989925384521484375
    RHS  R106  0.00459828786551952362060546875
    RHS  R107  0.1046954095363616943359375
    RHS  R108  -0.0842685997486114501953125
    RHS  R109  -0.098523683845996856689453125
    RHS  R110  0.062290497124195098876953125
    RHS  R111  -0.055030591785907745361328125
    RHS  R112  -0.087604783475399017333984375
    RHS  R113  -0.034616880118846893310546875
    RHS  R114  0.0258324928581714630126953125
    RHS  R115  -0.01259207539260387420654296875
    RHS  R116  -0.050776235759258270263671875
    RHS  R117  0.02395760454237461090087890625
    RHS  R118  0.0387980081140995025634765625
    RHS  R119  -0.077488802373409271240234375
    RHS  R120  -0.071327976882457733154296875
    RHS  R121  -0.062277235090732574462890625
    RHS  R122  -0.0944834053516387939453125
    RHS  R123  0.01447664014995098114013671875
    RHS  R124  0.0511076040565967559814453125
    RHS  R125  -0.079634673893451690673828125
    RHS  R126  -0.064664326608180999755859375
    RHS  R127  -0.08668123185634613037109375
    RHS  R128  0
    RHS  R129  0.14734323322772979736328125
    RHS  R130  0
    RHS  R131  0
    RHS  R132  0.088918507099151611328125
    RHS  R133  0
    RHS  R134  0
    RHS  R135  0.3148904740810394287109375
    RHS  R136  0
    RHS  R137  0
    RHS  R138  0.08724105358123779296875
    RHS  R139  0
    RHS  R140  0
    RHS  R141  0.4899251461029052734375
    RHS  R142  0
    RHS  R143  0
    RHS  R144  0.31899702548980712890625
    RHS  R145  0
    RHS  R146  0
    RHS  R147  0.1494822204113006591796875
    RHS  R148  0
    RHS  R149  0
    RHS  R150  0.24561165273189544677734375
    RHS  R151  0
    RHS  R152  0
    RHS  R153  0.29699885845184326171875
    RHS  R154  0
    RHS  R155  0
    RHS  R156  0.2869175374507904052734375
    RHS  R157  0
    RHS  R158  0
    RHS  R159  0.1807958781719207763671875
    RHS  R160  0
    RHS  R161  0
    RHS  R162  0.4020976722240447998046875
    RHS  R163  0
    RHS  R164  0
    RHS  R165  0.449113309383392333984375
    RHS  R166  0
    RHS  R167  0
    RHS  R168  0.4832401275634765625
    RHS  R169  0
    RHS  R170  0
    RHS  R171  0.3976358473300933837890625
    RHS  R172  0
    RHS  R173  0
    RHS  R174  0.3334436118602752685546875
    RHS  R175  0
    RHS  R176  0
    RHS  R177  0.08062691986560821533203125
    RHS  R178  0
    RHS  R179  0
    RHS  R180  0.3275409042835235595703125
    RHS  R181  0
    RHS  R182  0
    RHS  R183  0.1893307864665985107421875
    RHS  R184  0
    RHS  R185  0
    RHS  R186  0.24304692447185516357421875
    RHS  R187  0
    RHS  R188  0
    RHS  R189  0.0793897211551666259765625
    RHS  R190  0
    RHS  R191  0
    RHS  R192  0.19857180118560791015625
    RHS  R193  0
    RHS  R194  0
    RHS  R195  0.3999689519405364990234375
    RHS  R196  0
    RHS  R197  0
    RHS  R198  0.063139975070953369140625
    RHS  R199  0
    RHS  R200  0
    RHS  R201  0.18524904549121856689453125
    RHS  R202  0
    RHS  R203  0
    RHS  R204  0.20269860327243804931640625
    RHS  R205  0
    RHS  R206  0
    RHS  R207  0.30149042606353759765625
    RHS  R208  0
    RHS  R209  0
    RHS  R210  0.133161127567291259765625
    RHS  R211  0
    RHS  R212  0
    RHS  R213  0.3291855156421661376953125
    RHS  R214  0
    RHS  R215  0
    RHS  R216  0.19682395458221435546875
    RHS  R217  0
    RHS  R218  0
    RHS  R219  0.2458823025226593017578125
    RHS  R220  0
    RHS  R221  0
    RHS  R222  0.3491852581501007080078125
    RHS  R223  0
    RHS  R224  0
    RHS  R225  0.301714003086090087890625
    RHS  R226  0
    RHS  R227  0
    RHS  R228  0.1038976609706878662109375
    RHS  R229  0
    RHS  R230  0
    RHS  R231  0.3196544945240020751953125
    RHS  R232  0
    RHS  R233  0
    RHS  R234  0.1596683561801910400390625
    RHS  R235  0
    RHS  R236  0
    RHS  R237  0.271951735019683837890625
    RHS  R238  0
    RHS  R239  0
    RHS  R240  0.23507656157016754150390625
    RHS  R241  0
    RHS  R242  0
    RHS  R243  0.274555504322052001953125
    RHS  R244  0
    RHS  R245  0
    RHS  R246  0.23371522128582000732421875
    RHS  R247  0
    RHS  R248  0
    RHS  R249  0.03169636428356170654296875
    RHS  R250  0
    RHS  R251  0
    RHS  R252  0.15840934216976165771484375
    RHS  R253  0
    RHS  R254  0
    RHS  R255  0.23015348613262176513671875
    RHS  R256  0
    RHS  R257  0
    RHS  R258  0.3473514020442962646484375
    RHS  R259  0
    RHS  R260  0
    RHS  R261  0.18557965755462646484375
    RHS  R262  0
    RHS  R263  0
    RHS  R264  0.08750505745410919189453125
    RHS  R265  0
    RHS  R266  0
    RHS  R267  0.17022050917148590087890625
    RHS  R268  0
    RHS  R269  0
    RHS  R270  0.2478380501270294189453125
    RHS  R271  0
    RHS  R272  0
    RHS  R273  0.51619541645050048828125
    RHS  R274  0
    RHS  R275  0
    RHS  R276  0.3186829090118408203125
    RHS  R277  0
    RHS  R278  0
    RHS  R279  0.0069163255393505096435546875
    RHS  R280  0
    RHS  R281  0
    RHS  R282  0.506689488887786865234375
    RHS  R283  0
    RHS  R284  0
    RHS  R285  0.2531071007251739501953125
    RHS  R286  0
    RHS  R287  0
    RHS  R288  0.046859376132488250732421875
    RHS  R289  0
    RHS  R290  0
    RHS  R291  0.1510299742221832275390625
    RHS  R292  0
    RHS  R293  0
    RHS  R294  0.3462351858615875244140625
    RHS  R295  0
    RHS  R296  0
    RHS  R297  0.19039116799831390380859375
    RHS  R298  0
    RHS  R299  0
    RHS  R300  0.22133295238018035888671875
    RHS  R301  0
    RHS  R302  0
    RHS  R303  0.098808586597442626953125
    RHS  R304  0
    RHS  R305  0
    RHS  R306  0.346816539764404296875
    RHS  R307  0
    RHS  R308  0
    RHS  R309  0.16880337893962860107421875
    RHS  R310  0
    RHS  R311  0
    RHS  R312  0.2865613996982574462890625
    RHS  R313  0
    RHS  R314  0
    RHS  R315  0.2721258103847503662109375
    RHS  R316  0
    RHS  R317  0
    RHS  R318  0.2921187877655029296875
    RHS  R319  0
    RHS  R320  0
    RHS  R321  0.122722469270229339599609375
    RHS  R322  0
    RHS  R323  0
    RHS  R324  0.23028515279293060302734375
    RHS  R325  0
    RHS  R326  0
    RHS  R327  0.4237438738346099853515625
    RHS  R328  0
    RHS  R329  0
    RHS  R330  0.050900019705295562744140625
    RHS  R331  0
    RHS  R332  0
    RHS  R333  0.16886503994464874267578125
    RHS  R334  0
    RHS  R335  0
    RHS  R336  0.45607888698577880859375
    RHS  R337  0
    RHS  R338  0
    RHS  R339  0.2987056076526641845703125
    RHS  R340  0
    RHS  R341  0
    RHS  R342  0.1304090023040771484375
    RHS  R343  0
    RHS  R344  0
    RHS  R345  0.2107838690280914306640625
    RHS  R346  0
    RHS  R347  0
    RHS  R348  0.2093308866024017333984375
    RHS  R349  0
    RHS  R350  0
    RHS  R351  0.21709920465946197509765625
    RHS  R352  0
    RHS  R353  0
    RHS  R354  0.0345011986792087554931640625
    RHS  R355  0
    RHS  R356  0
    RHS  R357  0.4450887143611907958984375
    RHS  R358  0
    RHS  R359  0
    RHS  R360  0.297371447086334228515625
    RHS  R361  0
    RHS  R362  0
    RHS  R363  0.055777214467525482177734375
    RHS  R364  0
    RHS  R365  0
    RHS  R366  0.0372687280178070068359375
    RHS  R367  0
    RHS  R368  0
    RHS  R369  0.075731001794338226318359375
    RHS  R370  0
    RHS  R371  0
    RHS  R372  0.000685371458530426025390625
    RHS  R373  0
    RHS  R374  0
    RHS  R375  0.19760854542255401611328125
    RHS  R376  0
    RHS  R377  0
    RHS  R378  0.24456465244293212890625
    RHS  R379  0
    RHS  R380  0
    RHS  R381  0.18204624950885772705078125
    RHS  R382  0
    RHS  R383  0
    RHS  R384  0.2579452097415924072265625
    RHS  R385  0
    RHS  R386  0
    RHS  R387  0.4315521419048309326171875
    RHS  R388  0
    RHS  R389  0
    RHS  R390  0.3248731195926666259765625
    RHS  R391  0
    RHS  R392  0
    RHS  R393  0.320481240749359130859375
    RHS  R394  0
    RHS  R395  0
    RHS  R396  0.313524305820465087890625
    RHS  R397  0
    RHS  R398  0
    RHS  R399  0.07502953708171844482421875
    RHS  R400  0
    RHS  R401  0
    RHS  R402  0.331867873668670654296875
    RHS  R403  0
    RHS  R404  0
    RHS  R405  0.3061724603176116943359375
    RHS  R406  0
    RHS  R407  0
    RHS  R408  0.035087592899799346923828125
    RHS  R409  0
    RHS  R410  0
    RHS  R411  0.193706512451171875
    RHS  R412  0
    RHS  R413  0
    RHS  R414  0.10445208847522735595703125
    RHS  R415  0
    RHS  R416  0
    RHS  R417  0.2171187698841094970703125
    RHS  R418  0
    RHS  R419  0
    RHS  R420  0.3164165914058685302734375
    RHS  R421  0
    RHS  R422  0
    RHS  R423  0.16269762814044952392578125
    RHS  R424  0
    RHS  R425  0
    RHS  R426  0.3896860778331756591796875
    RHS  R427  0
    RHS  R428  0
    RHS  R429  0.3907084763050079345703125
    RHS  R430  0
    RHS  R431  0
    RHS  R432  0.480129897594451904296875
    RHS  R433  0
    RHS  R434  0
    RHS  R435  0.434603035449981689453125
    RHS  R436  0
    RHS  R437  0
    RHS  R438  0.1527037322521209716796875
    RHS  R439  0
    RHS  R440  0
    RHS  R441  0.22992180287837982177734375
    RHS  R442  0
    RHS  R443  0
    RHS  R444  0.325046956539154052734375
    RHS  R445  0
    RHS  R446  0
    RHS  R447  0.08460982143878936767578125
    RHS  R448  0
    RHS  R449  0
    RHS  R450  0.3306695520877838134765625
    RHS  R451  0
    RHS  R452  0
    RHS  R453  0.113685168325901031494140625
    RHS  R454  0
    RHS  R455  0
    RHS  R456  0.033872641623020172119140625
    RHS  R457  0
    RHS  R458  0
    RHS  R459  0.108032248914241790771484375
    RHS  R460  0
    RHS  R461  0
    RHS  R462  0.14168639481067657470703125
    RHS  R463  0
    RHS  R464  -0.005835236050188541412353515625
    RHS  R465  0.005835242569446563720703125
    RHS  R466  0
BOUNDS
 LO BND  X0  0.093068726360797882080078125
 UP BND  X0  0.221063792705535888671875
 LO BND  X1  0.23227401077747344970703125
 UP BND  X1  0.379457175731658935546875
 LO BND  X2  -0.040893137454986572265625
 UP BND  X2  0.000701771466992795467376708984375
 LO BND  X3  -0.097654946148395538330078125
 UP BND  X3  -0.01170712523162364959716796875
 LO BND  X4  -0.06767229735851287841796875
 UP BND  X4  0.01570602692663669586181640625
 LO BND  X5  -0.1004753410816192626953125
 UP BND  X5  -0.02971920929849147796630859375
 LO BND  X6  -0.18270330131053924560546875
 UP BND  X6  -0.08030398190021514892578125
 LO BND  X7  -0.0008065443835221230983734130859375
 UP BND  X7  0.05952717363834381103515625
 LO BND  X8  0.100623302161693572998046875
 UP BND  X8  0.18762071430683135986328125
 LO BND  X9  -0.0405093766748905181884765625
 UP BND  X9  0.0281731896102428436279296875
 LO BND  X10  -0.22691421210765838623046875
 UP BND  X10  -0.101022817194461822509765625
 LO BND  X11  -0.0503529869019985198974609375
 UP BND  X11  0.058505594730377197265625
 LO BND  X12  0.001472768955864012241363525390625
 UP BND  X12  0.07382333278656005859375
 LO BND  X13  -0.0333396904170513153076171875
 UP BND  X13  0.01842336170375347137451171875
 LO BND  X14  0.052039556205272674560546875
 UP BND  X14  0.22373037040233612060546875
 LO BND  X15  0.02691149152815341949462890625
 UP BND  X15  0.0896091163158416748046875
 LO BND  X16  0.14600019156932830810546875
 UP BND  X16  0.20200836658477783203125
 LO BND  X17  -0.005294422619044780731201171875
 UP BND  X17  0.0269206203520298004150390625
 LO BND  X18  -0.121108196675777435302734375
 UP BND  X18  -0.02058854512870311737060546875
 LO BND  X19  0.01222727634012699127197265625
 UP BND  X19  0.07604782283306121826171875
 LO BND  X20  -0.13713006675243377685546875
 UP BND  X20  -0.043706320226192474365234375
 LO BND  X21  -0.013245654292404651641845703125
 UP BND  X21  0.0527221523225307464599609375
 LO BND  X22  0.02621702663600444793701171875
 UP BND  X22  0.062174133956432342529296875
 LO BND  X23  -0.094633854925632476806640625
 UP BND  X23  -0.039554737508296966552734375
 LO BND  X24  -0.02324052341282367706298828125
 UP BND  X24  0.00768424570560455322265625
 LO BND  X25  -0.06265698373317718505859375
 UP BND  X25  -0.0338779874145984649658203125
 LO BND  X26  -0.0645824968814849853515625
 UP BND  X26  0.0416981764137744903564453125
 LO BND  X27  -0.011963076889514923095703125
 UP BND  X27  0.090486638247966766357421875
 LO BND  X28  0.026798374950885772705078125
 UP BND  X28  0.09004943072795867919921875
 LO BND  X29  -0.21952433884143829345703125
 UP BND  X29  -0.1683157980442047119140625
 FR BND  X30
 FR BND  X31
 FR BND  X32
 FR BND  X33
 FR BND  X34
 FR BND  X35
 FR BND  X36
 FR BND  X37
 FR BND  X38
 FR BND  X39
 FR BND  X40
 FR BND  X41
 FR BND  X42
 FR BND  X43
 FR BND  X44
 FR BND  X45
 FR BND  X46
 FR BND  X47
 FR BND  X48
 FR BND  X49
 FR BND  X50
 FR BND  X51
 FR BND  X52
 FR BND  X53
 FR BND  X54
 FR BND  X55
 FR BND  X56
 FR BND  X57
 FR BND  X58
 FR BND  X59
 FR BND  X60
 FR BND  X61
 FR BND  X62
 FR BND  X63
 FR BND  X64
 FR BND  X65
 FR BND  X66
 FR BND  X67
 FR BND  X68
 FR BND  X69
 FR BND  X70
 FR BND  X71
 FR BND  X72
 FR BND  X73
 FR BND  X74
 FR BND  X75
 FR BND  X76
 FR BND  X77
 FR BND  X78
 FR BND  X79
 FR BND  X80
 FR BND  X81
 FR BND  X82
 FR BND  X83
 FR BND  X84
 FR BND  X85
 FR BND  X86
 FR BND  X87
 FR BND  X88
 FR BND  X89
 FR BND  X90
 FR BND  X91
 FR BND  X92
 FR BND  X93
 FR BND  X94
 FR BND  X95
 FR BND  X96
 FR BND  X97
 FR BND  X98
 FR BND  X99
 FR BND  X100
 FR BND  X101
 FR BND  X102
 FR BND  X103
 FR BND  X104
 FR BND  X105
 FR BND  X106
 FR BND  X107
 FR BND  X108
 FR BND  X109
 FR BND  X110
 FR BND  X111
 FR BND  X112
 FR BND  X113
 FR BND  X114
 FR BND  X115
 FR BND  X116
 FR BND  X117
 FR BND  X118
 FR BND  X119
 FR BND  X120
 FR BND  X121
 FR BND  X122
 FR BND  X123
 FR BND  X124
 FR BND  X125
 FR BND  X126
 FR BND  X127
 FR BND  X128
 FR BND  X129
 FR BND  X130
 FR BND  X131
 FR BND  X132
 FR BND  X133
 FR BND  X134
 FR BND  X135
 FR BND  X136
 FR BND  X137
 FR BND  X138
 FR BND  X139
 FR BND  X140
 FR BND  X141
 FR BND  X142
 FR BND  X143
 FR BND  X144
 FR BND  X145
 FR BND  X146
 FR BND  X147
 FR BND  X148
 FR BND  X149
 FR BND  X150
 FR BND  X151
 FR BND  X152
 FR BND  X153
 FR BND  X154
 FR BND  X155
 FR BND  X156
 FR BND  X157
 UP BND  X158  0.18043349683284759521484375
 UP BND  X159  1
 UP BND  X160  0.19197218120098114013671875
 UP BND  X161  1
 UP BND  X162  0.082481004297733306884765625
 UP BND  X163  1
 UP BND  X164  0.2717176377773284912109375
 UP BND  X165  1
 UP BND  X166  0.046835005283355712890625
 UP BND  X167  1
 UP BND  X168  0.18294449150562286376953125
 UP BND  X169  1
 UP BND  X170  0.182883203029632568359375
 UP BND  X171  1
 UP BND  X172  0.12208171188831329345703125
 UP BND  X173  1
 UP BND  X174  0.12881855666637420654296875
 UP BND  X175  1
 UP BND  X176  0.2446392476558685302734375
 UP BND  X177  1
 UP BND  X178  0.2453106343746185302734375
 UP BND  X179  1
 UP BND  X180  0.0332938991487026214599609375
 UP BND  X181  1
 UP BND  X182  0.090290449559688568115234375
 UP BND  X183  1
 UP BND  X184  0.017500020563602447509765625
 UP BND  X185  1
 UP BND  X186  0.0353406965732574462890625
 UP BND  X187  1
 UP BND  X188  0.2137130200862884521484375
 UP BND  X189  1
 UP BND  X190  0.20653438568115234375
 UP BND  X191  1
 UP BND  X192  0.1284148991107940673828125
 UP BND  X193  1
 UP BND  X194  0.188520967960357666015625
 UP BND  X195  1
 UP BND  X196  0.17177295684814453125
 UP BND  X197  1
 UP BND  X198  0.36328804492950439453125
 UP BND  X199  1
 UP BND  X200  0.2223581969738006591796875
 UP BND  X201  1
 UP BND  X202  0.05921690165996551513671875
 UP BND  X203  1
 UP BND  X204  0.341587126255035400390625
 UP BND  X205  1
 UP BND  X206  0.231955587863922119140625
 UP BND  X207  1
 UP BND  X208  0.1879686415195465087890625
 UP BND  X209  1
 UP BND  X210  0.19767452776432037353515625
 UP BND  X211  1
 UP BND  X212  0.23065698146820068359375
 UP BND  X213  1
 UP BND  X214  0.1669306457042694091796875
 UP BND  X215  1
 UP BND  X216  0.3085515201091766357421875
 UP BND  X217  1
 UP BND  X218  0.19057142734527587890625
 UP BND  X219  1
 UP BND  X220  0.16029213368892669677734375
 UP BND  X221  1
 UP BND  X222  0.17057025432586669921875
 UP BND  X223  1
 UP BND  X224  0.290453374385833740234375
 UP BND  X225  1
 UP BND  X226  0.21202068030834197998046875
 UP BND  X227  1
 UP BND  X228  0.206048309803009033203125
 UP BND  X229  1
 UP BND  X230  0.15945963561534881591796875
 UP BND  X231  1
 UP BND  X232  0.24722754955291748046875
 UP BND  X233  1
 UP BND  X234  0.15941618382930755615234375
 UP BND  X235  1
 UP BND  X236  0.2821350395679473876953125
 UP BND  X237  1
 UP BND  X238  0.368641555309295654296875
 UP BND  X239  1
 UP BND  X240  0.2700698077678680419921875
 UP BND  X241  1
 UP BND  X242  0.2446280419826507568359375
 UP BND  X243  1
 UP BND  X244  0.2287221848964691162109375
 UP BND  X245  1
 UP BND  X246  0.2144575417041778564453125
 UP BND  X247  1
 UP BND  X248  0.2635139524936676025390625
 UP BND  X249  1
 UP BND  X250  0.2039676010608673095703125
 UP BND  X251  1
 UP BND  X252  0.2582176029682159423828125
 UP BND  X253  1
 UP BND  X254  0.0132563114166259765625
 UP BND  X255  1
 UP BND  X256  0.18210436403751373291015625
 UP BND  X257  1
 UP BND  X258  0.3016877472400665283203125
 UP BND  X259  1
 UP BND  X260  0.2543637752532958984375
 UP BND  X261  1
 UP BND  X262  0.3465122878551483154296875
 UP BND  X263  1
 UP BND  X264  0.30634868144989013671875
 UP BND  X265  1
 UP BND  X266  0.177563488483428955078125
 UP BND  X267  1
 UP BND  X268  0.13606770336627960205078125
 UP BND  X269  1
 UP BND  X270  0.2080309092998504638671875
 UP BND  X271  1
 UP BND  X272  0.17070662975311279296875
 UP BND  X273  1
 UP BND  X274  0.2855267822742462158203125
 UP BND  X275  1
 UP BND  X276  0.14352168142795562744140625
 UP BND  X277  1
 UP BND  X278  0.18651105463504791259765625
 UP BND  X279  1
 UP BND  X280  0.07243163883686065673828125
 UP BND  X281  1
 UP BND  X282  0.1647569835186004638671875
 UP BND  X283  1
 UP BND  X284  0.090461976826190948486328125
 UP BND  X285  1
 UP BND  X286  0.3042854368686676025390625
 UP BND  X287  1
 UP BND  X288  0.1558466851711273193359375
 UP BND  X289  1
 UP BND  X290  0.11029167473316192626953125
 UP BND  X291  1
 UP BND  X292  0.366597235202789306640625
 UP BND  X293  1
 UP BND  X294  0.22457270324230194091796875
 UP BND  X295  1
 UP BND  X296  0.121748350560665130615234375
 UP BND  X297  1
 UP BND  X298  0.278377056121826171875
 UP BND  X299  1
 UP BND  X300  0.290175914764404296875
 UP BND  X301  1
 UP BND  X302  0.16521029174327850341796875
 UP BND  X303  1
 UP BND  X304  0.14953553676605224609375
 UP BND  X305  1
 UP BND  X306  0.23236466944217681884765625
 UP BND  X307  1
 UP BND  X308  0.4346144497394561767578125
 UP BND  X309  1
 UP BND  X310  0.00422458350658416748046875
 UP BND  X311  1
 UP BND  X312  0.1692636907100677490234375
 UP BND  X313  1
 UP BND  X314  0.4345701634883880615234375
 UP BND  X315  1
 UP BND  X316  0.3801096379756927490234375
 UP BND  X317  1
 UP BND  X318  0.32500207424163818359375
 UP BND  X319  1
 UP BND  X320  0.481924593448638916015625
 UP BND  X321  1
 UP BND  X322  0.046132005751132965087890625
 UP BND  X323  1
 UP BND  X324  0.12742434442043304443359375
 UP BND  X325  1
 UP BND  X326  0.225873410701751708984375
 UP BND  X327  1
 UP BND  X328  0.1597941815853118896484375
 UP BND  X329  1
 UP BND  X330  0.0461997203528881072998046875
 UP BND  X331  1
 UP BND  X332  0.080223910510540008544921875
 UP BND  X333  1
 UP BND  X334  0.13484551012516021728515625
 UP BND  X335  1
 UP BND  X336  0.2614032328128814697265625
 UP BND  X337  1
 UP BND  X338  0.3170826137065887451171875
 UP BND  X339  1
 FX BND  X340  0
 UP BND  X341  0.116998396813869476318359375
 UP BND  X342  1
 UP BND  X343  0.0548284351825714111328125
 UP BND  X344  1
 UP BND  X345  0.3385324776172637939453125
 UP BND  X346  1
 UP BND  X347  0.1256734430789947509765625
 UP BND  X348  1
 UP BND  X349  0.238062679767608642578125
 UP BND  X350  1
 UP BND  X351  0.258614838123321533203125
 UP BND  X352  1
 UP BND  X353  0.1391990184783935546875
 UP BND  X354  1
 UP BND  X355  0.23194308578968048095703125
 UP BND  X356  1
 UP BND  X357  0.0295590125024318695068359375
 UP BND  X358  1
 FX BND  X359  0
 UP BND  X360  0.1722223758697509765625
 UP BND  X361  1
 UP BND  X362  0.02605432085692882537841796875
 UP BND  X363  1
 UP BND  X364  0.075347654521465301513671875
 UP BND  X365  1
 UP BND  X366  0.1769202649593353271484375
 UP BND  X367  1
 UP BND  X368  0.2226369380950927734375
 UP BND  X369  1
 UP BND  X370  0.094959728419780731201171875
 UP BND  X371  1
 UP BND  X372  0.2497049272060394287109375
 UP BND  X373  1
 UP BND  X374  0.20247466862201690673828125
 UP BND  X375  1
 UP BND  X376  0.24967046082019805908203125
 UP BND  X377  1
 UP BND  X378  0.2520333230495452880859375
 UP BND  X379  1
 UP BND  X380  0.316626727581024169921875
 UP BND  X381  1
 UP BND  X382  0.15366946160793304443359375
 UP BND  X383  1
 FR BND  X384
 FR BND  X385
ENDATA
