c Double parity contradiction: XOR(x1,...,x5) = 0 AND XOR(x1,...,x5) = 1
c Known UNSAT - contradictory parity requirements
p cnf 5 32
-1 2 3 4 5 0
1 -2 3 4 5 0
1 2 -3 4 5 0
-1 -2 -3 4 5 0
1 2 3 -4 5 0
-1 -2 3 -4 5 0
-1 2 -3 -4 5 0
1 -2 -3 -4 5 0
1 2 3 4 -5 0
-1 -2 3 4 -5 0
-1 2 -3 4 -5 0
1 -2 -3 4 -5 0
-1 2 3 -4 -5 0
1 -2 3 -4 -5 0
1 2 -3 -4 -5 0
-1 -2 -3 -4 -5 0
1 2 3 4 5 0
-1 -2 3 4 5 0
-1 2 -3 4 5 0
1 -2 -3 4 5 0
-1 2 3 -4 5 0
1 -2 3 -4 5 0
1 2 -3 -4 5 0
-1 -2 -3 -4 5 0
-1 2 3 4 -5 0
1 -2 3 4 -5 0
1 2 -3 4 -5 0
-1 -2 -3 4 -5 0
1 2 3 -4 -5 0
-1 -2 3 -4 -5 0
-1 2 -3 -4 -5 0
1 -2 -3 -4 -5 0
