c Partial Latin square completion: 2x2 with conflicting assignments
c Known UNSAT
c Variables: x_{r,c,v} = cell (r,c) has value v
c Cell (0,0): vars 1,2 (values 1,2)
c Cell (0,1): vars 3,4
c Cell (1,0): vars 5,6
c Cell (1,1): vars 7,8
c Pre-assigned: (0,0)=1, (0,1)=1 (conflict in row)
p cnf 8 14
c Pre-assignment: cell (0,0) = value 1
1 0
-2 0
c Pre-assignment: cell (0,1) = value 1
3 0
-4 0
c Each cell has at least one value
1 2 0
3 4 0
5 6 0
7 8 0
c Row 0: no repeated values
c (0,0) and (0,1) can't both be value 1
-1 -3 0
c (0,0) and (0,1) can't both be value 2
-2 -4 0
c Row 1: no repeated values
-5 -7 0
-6 -8 0
