c Pigeonhole principle: 5 pigeons, 4 holes
c Known UNSAT - harder PHP instance
c Variables: x_{i,j} = pigeon i in hole j
c x_{1,1..4}=1..4, x_{2,1..4}=5..8, x_{3,1..4}=9..12,
c x_{4,1..4}=13..16, x_{5,1..4}=17..20
p cnf 20 50
c Each pigeon in at least one hole
1 2 3 4 0
5 6 7 8 0
9 10 11 12 0
13 14 15 16 0
17 18 19 20 0
c Hole 1: at most one of {1,5,9,13,17}
-1 -5 0
-1 -9 0
-1 -13 0
-1 -17 0
-5 -9 0
-5 -13 0
-5 -17 0
-9 -13 0
-9 -17 0
-13 -17 0
c Hole 2: at most one of {2,6,10,14,18}
-2 -6 0
-2 -10 0
-2 -14 0
-2 -18 0
-6 -10 0
-6 -14 0
-6 -18 0
-10 -14 0
-10 -18 0
-14 -18 0
c Hole 3: at most one of {3,7,11,15,19}
-3 -7 0
-3 -11 0
-3 -15 0
-3 -19 0
-7 -11 0
-7 -15 0
-7 -19 0
-11 -15 0
-11 -19 0
-15 -19 0
c Hole 4: at most one of {4,8,12,16,20}
-4 -8 0
-4 -12 0
-4 -16 0
-4 -20 0
-8 -12 0
-8 -16 0
-8 -20 0
-12 -16 0
-12 -20 0
-16 -20 0
