c Random 3-SAT: 50 variables, 213 clauses
c Clause/variable ratio: 4.260 (UNSAT threshold ~4.267)
c Seed: 12349
c Generated at phase transition; expected UNSAT at this ratio
p cnf 50 213
4 -42 -2 0
1 2 14 0
-13 -12 -42 0
-10 26 -38 0
34 18 -12 0
19 42 -4 0
-10 28 -35 0
-3 -43 38 0
40 15 -32 0
32 -36 48 0
-11 13 -29 0
12 15 -18 0
-6 -49 18 0
-9 20 47 0
-40 -29 -18 0
6 38 19 0
24 22 -16 0
33 -1 44 0
42 36 26 0
33 -26 29 0
10 -36 46 0
-15 -10 -37 0
-35 -12 22 0
23 5 10 0
-40 -39 37 0
-26 41 32 0
13 -22 -50 0
-12 38 25 0
10 41 -39 0
23 -10 -26 0
-15 18 25 0
47 -2 27 0
33 -42 -4 0
42 33 45 0
22 40 -3 0
41 -7 38 0
-30 22 -4 0
15 34 19 0
19 24 33 0
17 -24 42 0
21 28 14 0
-22 -1 31 0
6 38 9 0
-5 -1 -22 0
19 40 -24 0
5 -7 -17 0
43 21 -11 0
12 18 -42 0
27 23 -47 0
1 -22 -5 0
20 18 -1 0
-11 36 -38 0
-13 49 41 0
22 -12 10 0
-19 50 35 0
-32 -3 16 0
1 45 -23 0
46 -7 -20 0
-1 -16 -15 0
-32 -45 -14 0
17 -39 -16 0
-17 37 -20 0
11 20 -17 0
20 24 39 0
-21 -33 -31 0
-36 20 13 0
45 -12 -1 0
2 3 24 0
26 13 -22 0
-50 -26 -19 0
-41 20 -44 0
4 -46 -49 0
4 -16 45 0
-11 10 -4 0
-14 -12 21 0
-40 31 22 0
9 8 10 0
5 14 -33 0
29 -24 19 0
-30 25 27 0
49 -18 35 0
-17 45 40 0
11 17 -20 0
-32 49 -48 0
39 45 -26 0
21 -6 17 0
20 33 40 0
21 50 40 0
-7 23 9 0
-26 17 -6 0
-41 30 -24 0
28 -49 27 0
35 -16 21 0
-42 10 12 0
-13 48 -22 0
29 39 -50 0
19 -14 -3 0
13 31 26 0
-26 15 -36 0
25 2 -3 0
-43 47 -41 0
21 49 -33 0
47 5 -30 0
8 -38 -35 0
19 18 31 0
-38 33 -7 0
-46 -39 -34 0
48 14 -9 0
-33 -10 37 0
-34 36 -26 0
40 49 17 0
-18 39 -14 0
38 27 37 0
40 19 -39 0
31 -5 -34 0
36 28 11 0
-33 -37 -35 0
-11 20 -29 0
-7 5 -35 0
33 -11 27 0
-19 26 -21 0
-8 14 -11 0
42 37 -38 0
47 45 1 0
-1 9 -31 0
4 32 39 0
48 20 -24 0
47 -9 -32 0
11 46 -12 0
-1 -13 50 0
-50 -24 16 0
-4 -34 48 0
10 18 -37 0
36 2 -34 0
14 31 33 0
-4 -34 -23 0
19 45 -26 0
-22 41 -36 0
-3 -4 46 0
-32 -47 -45 0
47 36 18 0
-42 -28 -43 0
31 -37 -39 0
7 -46 44 0
-11 7 -13 0
48 -19 32 0
4 29 -48 0
50 35 4 0
-48 -36 44 0
-46 -18 10 0
1 -42 -5 0
-43 -1 21 0
8 42 28 0
-38 -46 -6 0
36 24 38 0
-48 -31 -17 0
-2 14 -32 0
36 -1 18 0
9 4 -23 0
-31 -39 33 0
31 -22 40 0
33 -29 -42 0
-23 -35 46 0
3 20 9 0
11 -48 -32 0
22 28 8 0
-1 11 50 0
43 -7 12 0
-39 -28 -35 0
-44 7 -34 0
48 27 -5 0
-29 28 -14 0
10 -36 -45 0
44 35 45 0
43 -41 -44 0
-42 44 -6 0
17 -46 39 0
-48 34 41 0
22 -20 28 0
-23 -32 -1 0
-42 34 6 0
-15 -44 -21 0
-38 16 -45 0
-33 -45 32 0
-48 25 -41 0
14 -15 -21 0
19 -45 3 0
-26 18 50 0
-3 -44 15 0
47 27 -12 0
-17 -1 37 0
15 -42 45 0
3 11 -22 0
23 -19 16 0
20 -21 -12 0
-12 -13 31 0
-25 8 6 0
40 -6 33 0
-13 12 40 0
30 -20 -36 0
-11 43 -46 0
-45 -17 24 0
28 35 29 0
-24 11 -20 0
10 1 -31 0
-9 43 28 0
28 -25 40 0
2 25 -45 0
-36 -35 46 0
-44 4 -19 0
38 -34 -41 0
26 10 -2 0
24 26 -29 0
