c Tseitin formula on random graph: 15 vertices, 25 edges
c Vertex 0 has odd parity, all others even parity
c UNSAT: odd number of odd-parity vertices (1)
c Seed: 42
p cnf 25 96
1 2 0
-1 -2 0
-1 3 4 5 0
1 -3 4 5 0
1 3 -4 5 0
-1 -3 -4 5 0
1 3 4 -5 0
-1 -3 4 -5 0
-1 3 -4 -5 0
1 -3 -4 -5 0
-6 7 8 9 0
6 -7 8 9 0
6 7 -8 9 0
-6 -7 -8 9 0
6 7 8 -9 0
-6 -7 8 -9 0
-6 7 -8 -9 0
6 -7 -8 -9 0
-10 11 12 0
10 -11 12 0
10 11 -12 0
-10 -11 -12 0
-10 13 0
10 -13 0
-6 14 15 16 0
6 -14 15 16 0
6 14 -15 16 0
-6 -14 -15 16 0
6 14 15 -16 0
-6 -14 15 -16 0
-6 14 -15 -16 0
6 -14 -15 -16 0
-7 13 14 17 18 0
7 -13 14 17 18 0
7 13 -14 17 18 0
-7 -13 -14 17 18 0
7 13 14 -17 18 0
-7 -13 14 -17 18 0
-7 13 -14 -17 18 0
7 -13 -14 -17 18 0
7 13 14 17 -18 0
-7 -13 14 17 -18 0
-7 13 -14 17 -18 0
7 -13 -14 17 -18 0
-7 13 14 -17 -18 0
7 -13 14 -17 -18 0
7 13 -14 -17 -18 0
-7 -13 -14 -17 -18 0
-19 20 0
19 -20 0
-3 17 19 21 22 0
3 -17 19 21 22 0
3 17 -19 21 22 0
-3 -17 -19 21 22 0
3 17 19 -21 22 0
-3 -17 19 -21 22 0
-3 17 -19 -21 22 0
3 -17 -19 -21 22 0
3 17 19 21 -22 0
-3 -17 19 21 -22 0
-3 17 -19 21 -22 0
3 -17 -19 21 -22 0
-3 17 19 -21 -22 0
3 -17 19 -21 -22 0
3 17 -19 -21 -22 0
-3 -17 -19 -21 -22 0
-4 8 15 0
4 -8 15 0
4 8 -15 0
-4 -8 -15 0
-5 18 0
5 -18 0
-21 23 24 0
21 -23 24 0
21 23 -24 0
-21 -23 -24 0
-9 11 20 23 0
9 -11 20 23 0
9 11 -20 23 0
-9 -11 -20 23 0
9 11 20 -23 0
-9 -11 20 -23 0
-9 11 -20 -23 0
9 -11 -20 -23 0
-16 22 25 0
16 -22 25 0
16 22 -25 0
-16 -22 -25 0
-2 12 24 25 0
2 -12 24 25 0
2 12 -24 25 0
-2 -12 -24 25 0
2 12 24 -25 0
-2 -12 24 -25 0
-2 12 -24 -25 0
2 -12 -24 -25 0
